P18848 P16220
P18848 P18846
P18848 P18847
P18848 P15336
P18848 Q16520
P18848 Q8N1L9
P18848 Q9NR55
P18848 P49715
P18848 P17676
P18848 P53567
P18848 P49716
P18848 Q15744
P18848 O43889
P18848 Q9NS37
P18848 P35638
P18848 P05412
P18848 P17275
P18848 P01100
P18848 P15407
P18848 O75444
P18848 Q9Y5Q3
P18848 Q16621
P18848 Q14494
P18848 0000443103
P18848 Q16236
P18848 Q9Y4A8
P16220 P18846
P16220 O14867
P18846 O14867
P18846 Q16649
O14746 URS00004A7003
O14746 URS000075C8FA
O14746 Q9NPE3
O14746 Q9NX24
O14746 Q9BUR4
O14746 Q9NY12
O14746 O60832
URS00004A7003 Q9NPE3
URS00004A7003 Q9NX24
URS00004A7003 Q9BUR4
URS00004A7003 Q9NY12
URS00004A7003 O60832
URS000075C8FA Q99575
URS000075C8FA P78345
URS000075C8FA P78346
URS000075C8FA O95707
URS000075C8FA O75817
URS000075C8FA O75818
URS000075C8FA Q969H6
URS000075C8FA Q9BUL9
P06702 P05109
P06702 P35228
P05109 P35228
Q15797 Q13485
Q13485 Q15796
Q13485 P84022
P08151 Q9UMX1
Q9UMX1 P10070
Q9UMX1 P10071
P49715 P35638
P49715 P17676
P49715 P18847
P49715 Q9Y2D1
P49715 Q16520
P49715 Q8N1L9
P49715 Q9NR55
P35638 P17676
P35638 P15336
P35638 P18847
P35638 P17544
P35638 Q16520
P35638 Q8N1L9
P35638 Q9NR55
P35638 O14867
P17676 P10242
P17676 P18847
P17676 Q16520
P17676 Q9NR55
Q99570 Q6ZNE5
Q99570 Q14457
Q99570 Q8NEB9
Q99570 Q9P2Y5
Q6ZNE5 Q14457
Q6ZNE5 Q8NEB9
Q14457 Q8NEB9
Q14457 Q9P2Y5
Q8NEB9 Q9P2Y5
P20585 P43246
P43246 P52701
P13984 P35269
Q9Y6D9 Q13257
Q13257 O60566
Q13257 O43684
Q13257 Q12834
P01106 P61244
P01106 O00499
P01106 O43524
P61244 Q05195
P61244 Q14582
P61244 P04198
P61244 P50539
P61244 Q9BW11
P61244 P12524
P61244 Q8IWI9
P01040 P07858
P49841 O95996
P49841 O15169
P49841 P48729
P49841 P25054
P49841 Q9Y2T1
P49841 Q92837
P49841 O75474
O95996 O15169
O95996 P48729
O95996 Q9Y2T1
O95996 P49840
O15169 P48729
O15169 P25054
O15169 P49840
P48729 P25054
P48729 P49840
P48729 Q9Y2T1
Q8WZ42 O15273
P53355 P0DP25
P53355 P0DP24
P53355 P0DP23
P0DP25 P0DP24
P0DP25 P0DP23
P0DP25 Q08209
P0DP25 P24588
P0DP25 P63098
P0DP25 P51787
P0DP25 P16298
P0DP25 P48454
P0DP25 Q96LZ3
P0DP25 Q5T4S7
P0DP25 Q9P0J7
P0DP25 P15735
P0DP25 Q93100
P0DP25 P46019
P0DP25 Q8N2C7
P0DP25 Q8IZF0
P0DP25 Q9P2D8
P0DP25 B1AL88
P0DP25 Q16816
P0DP25 P46020
P0DP24 P0DP23
P0DP24 Q08209
P0DP24 P24588
P0DP24 P63098
P0DP24 P51787
P0DP24 P16298
P0DP24 P48454
P0DP24 Q96LZ3
P0DP24 Q5T4S7
P0DP24 Q9P0J7
P0DP24 P15735
P0DP24 Q93100
P0DP24 P46019
P0DP24 Q8N2C7
P0DP24 Q8IZF0
P0DP24 Q9P2D8
P0DP24 B1AL88
P0DP24 Q16816
P0DP24 P46020
P0DP23 Q08209
P0DP23 P24588
P0DP23 P63098
P0DP23 P51787
P0DP23 P16298
P0DP23 P48454
P0DP23 Q96LZ3
P0DP23 Q5T4S7
P0DP23 Q9P0J7
P0DP23 P15735
P0DP23 Q93100
P0DP23 P46019
P0DP23 Q8N2C7
P0DP23 Q8IZF0
P0DP23 Q9P2D8
P0DP23 B1AL88
P0DP23 Q16816
P0DP23 P46020
Q05195 Q9UH92
P25054 P49840
P25054 Q9Y2T1
P49840 Q9Y2T1
P40197 P14770
P40197 P13224
P40197 P07359
P40197 P21333
P14770 P13224
P14770 P07359
P14770 P21333
P13224 P07359
P13224 P21333
P07359 P21333
Q96GD4 Q9NQS7
Q96GD4 O15392
Q96GD4 Q53HL2
Q9NQS7 O15392
Q9NQS7 Q53HL2
O15392 Q53HL2
0000023963 P15309
P05026 P05023
P05026 P54710
P05026 O00168
P05026 Q14802
P05026 P59646
P05026 Q96DB9
P05026 Q9H0Q3
P05026 P58549
P05023 P54710
P05023 O00168
P05023 Q14802
P05023 P59646
P05023 Q96DB9
P05023 Q9H0Q3
P05023 P58549
0000027121 0000027120
0000027121 P01130
0000027121 Q8NBP7
0000027120 P01130
0000027120 Q8NBP7
P01130 Q8NBP7
Q8NBP7 P07355
P07355 Q09666
P07355 P60903
P07355 Q14527
P11441 Q7L5D6
P11441 P46379
Q7L5D6 P46379
Q8TAT6 P55072
Q8TAT6 Q92890
Q8TAT6 Q9UNN5
Q8TAT6 O94888
Q8TAT6 Q96CS3
Q8TAT6 Q04323
P55072 Q92890
P55072 Q9UNZ2
P55072 Q9UNN5
P55072 O94888
P55072 Q96CS3
P55072 Q04323
P55072 Q14CS0
P55072 P68543
P55072 P15172
P55072 Q9Y263
P55072 Q96JH7
P55072 Q9BZV1
P55072 Q9UKV5
P55072 Q9BUN8
P55072 Q9GZP9
P55072 Q96Q80
Q92890 Q9UNN5
Q92890 O94888
Q92890 Q96CS3
Q92890 Q04323
Q9NYB0 Q15554
Q9NYB0 Q9BSI4
Q9NYB0 Q9NUX5
Q9NYB0 Q96AP0
Q9NYB0 P54274
Q15554 Q9BSI4
Q15554 Q9NUX5
Q15554 Q96AP0
Q15554 P54274
Q15554 Q8IY92
Q9BSI4 Q9NUX5
Q9BSI4 Q96AP0
Q9BSI4 P54274
Q9NUX5 Q96AP0
Q9NUX5 P54274
Q96AP0 P54274
Q14186 Q01094
Q14186 P06400
Q14186 Q14209
Q14186 Q52LA3
Q14186 Q96GY3
Q14186 Q5TKA1
Q14186 Q14188
Q14186 Q09028
Q14186 Q6MZP7
Q14186 Q08999
Q14186 Q16254
Q14186 Q15329
Q14186 O00716
Q14186 P28749
Q14186 O75461
Q01094 P06400
P06400 Q14209
P06400 Q9Y468
P06400 Q13185
P06400 O00716
Q9NY27 P60510
Q9NY27 Q6IN85
Q9NY27 Q5MIZ7
P60510 Q8TF05
P60510 Q6IN85
P60510 Q5MIZ7
P60510 Q6NUP7
P43681 0000000379
P43681 0000000351
P43681 P17787
P43681 0000000356
P43681 P30532
P43681 0000000389
P43681 P30926
0000000379 0000000351
0000000379 P17787
0000000379 P32297
0000000379 0000000356
0000000379 P30532
0000000379 0000000346
0000000379 0000000366
0000000379 P36544
0000000379 0000000340
0000000379 Q15822
0000000379 0000000383
0000000379 Q05901
0000000379 0000000360
0000000379 Q15825
0000000351 P17787
0000000351 0000000356
0000000351 P30532
0000000351 0000000389
0000000351 P30926
P17787 P32297
P17787 0000000356
P17787 P30532
P17787 0000000346
P17787 0000000366
P17787 P36544
P17787 0000000340
P17787 Q15822
P17787 0000000383
P17787 Q05901
P17787 0000000360
P17787 Q15825
P32297 0000000356
P32297 P30532
P32297 0000000346
P32297 P30926
P32297 0000000389
P32297 0000000360
P32297 Q15825
P32297 0000000383
P32297 Q05901
0000000356 P30532
0000000356 0000000346
0000000356 P30926
0000000356 0000000389
P30532 0000000346
P30532 P30926
P30532 0000000389
0000000346 P30926
0000000346 0000000389
0000000346 0000000360
0000000346 Q15825
0000000346 0000000383
0000000346 Q05901
Q09428 Q14654
Q14654 O60706
O94817 Q676U5
O94817 Q9H1Y0
O94817 Q8NAA4
O94817 Q7Z6L1
Q676U5 Q9H1Y0
Q9H1Y0 Q8NAA4
Q9H1Y0 Q7Z6L1
P30926 0000000389
P30926 0000000360
P30926 Q15825
P30926 0000000340
P30926 Q15822
0000000389 0000000360
0000000389 Q15825
0000000389 0000000340
0000000389 Q15822
0000000360 Q15825
0000000360 0000000383
0000000360 Q05901
Q15825 0000000383
Q15825 Q05901
O60563 P50750
P50750 O60583
Q9UGM1 0000000371
Q9UGM1 Q9GZZ6
Q9UGM1 0000000376
0000000371 Q9GZZ6
0000000371 0000000376
0000000366 P36544
Q9NYV4 O75909
O75909 Q14004
0000000315 P11230
0000000315 0000000329
0000000315 Q07001
0000000315 Q04844
0000000315 0000000305
0000000315 P02708
0000000315 0000000334
0000000315 P07510
P11230 0000000329
P11230 Q07001
P11230 Q04844
P11230 0000000305
P11230 P02708
P11230 0000000334
P11230 P07510
0000000329 Q07001
0000000329 Q04844
0000000329 0000000305
0000000329 P02708
Q07001 Q04844
Q07001 0000000305
Q07001 P02708
Q07001 0000000334
Q07001 P07510
Q04844 0000000305
Q04844 P02708
0000000305 P02708
0000000305 0000000334
0000000305 P07510
P02708 0000000334
P02708 P07510
P46937 P28347
O95264 P46098
P46098 Q70Z44
P46098 A5X5Y0
P46098 Q8WXA8
Q05586 Q13224
Q05586 Q14957
Q05586 O15399
Q05586 Q12879
Q13224 Q12879
Q13794 Q07820
Q07820 O43521
Q92466 Q16531
Q92466 Q13619
Q92466 P62877
Q92466 Q13620
Q16531 Q13619
Q16531 P62877
Q16531 Q13620
Q16531 Q9NV06
Q16531 Q8TEB1
Q16531 Q5T6F0
Q16531 Q8WWQ0
Q16531 Q9NXF7
Q16531 Q5H9S7
Q16531 Q13216
Q16531 Q96SW2
Q16531 Q66K64
Q16531 Q9BW61
Q16531 Q9Y4B6
Q16531 Q9NZJ0
Q16531 Q9C0C7
Q16531 Q96JK2
Q16531 Q58WW2
Q16531 P61962
Q16531 Q8N5D0
Q16531 Q8WV16
Q16531 Q5TAQ9
Q16531 Q5QP82
Q13323 Q92843
P51172 P37088
P51172 P51168
P51172 P51170
P37088 P51168
P37088 P51170
P51168 P51170
Q9UJU2 P35222
Q8N1B3 Q15131
Q9HD42 Q96FZ7
Q9HD42 Q96CF2
Q9HD42 Q7LBR1
Q9HD42 Q9NZZ3
Q9HD42 Q9UQN3
Q9HD42 O43633
Q9HD42 Q8WUX9
Q9HD42 Q9Y3E7
Q9HD42 Q9H444
Q9HD42 Q9BY43
Q96FZ7 Q96CF2
Q96FZ7 Q7LBR1
Q96FZ7 Q9NZZ3
Q96FZ7 Q9UQN3
Q96FZ7 O43633
Q96FZ7 Q8WUX9
Q96FZ7 Q9Y3E7
Q96FZ7 Q9H444
Q96FZ7 Q9BY43
Q96CF2 Q7LBR1
Q96CF2 Q9NZZ3
Q96CF2 Q9UQN3
Q96CF2 O43633
Q96CF2 Q8WUX9
Q96CF2 Q9Y3E7
Q96CF2 Q9H444
Q96CF2 Q9BY43
Q7LBR1 Q9NZZ3
Q7LBR1 Q9UQN3
Q7LBR1 O43633
Q7LBR1 Q8WUX9
Q7LBR1 Q9Y3E7
Q7LBR1 Q9H444
Q7LBR1 Q9BY43
Q9NZZ3 Q9UQN3
Q9NZZ3 O43633
Q9NZZ3 Q8WUX9
Q9NZZ3 Q9Y3E7
Q9NZZ3 Q9H444
Q9NZZ3 Q9BY43
Q9UQN3 O43633
Q9UQN3 Q8WUX9
Q9UQN3 Q9Y3E7
Q9UQN3 Q9H444
Q9UQN3 Q9BY43
O43633 Q8WUX9
O43633 Q9Y3E7
O43633 Q9H444
O43633 Q9BY43
Q8WUX9 Q9Y3E7
Q8WUX9 Q9H444
Q8WUX9 Q9BY43
Q9Y3E7 Q9H444
Q9Y3E7 Q9BY43
Q9H444 Q9BY43
Q00526 P24863
P24863 P49336
P24863 Q93074
P24863 Q9UHV7
P24863 Q9BWU1
O75351 Q9UN37
Q9UK58 Q9UQ88
Q9UK58 P21127
Q9UQ88 Q96S94
Q96S94 P21127
0000042260 Q9Y251
0000042260 0000042262
Q9Y251 0000042262
O94921 Q8ND76
Q8ND76 Q00536
P23921 Q7LG56
P23921 P31350
Q8TDY2 Q9BSB4
Q8TDY2 O75385
Q8TDY2 O75143
Q9BSB4 O75385
Q9BSB4 O75143
O75385 O75143
P11177 P08559
P11177 P10515
P11177 O00330
P11177 P09622
P11177 P29803
P08559 P10515
P08559 O00330
P08559 P09622
P29459 0000015604
P29459 0000010930
P29459 P29460
P29459 Q14213
0000015604 0000010930
0000015604 P29460
0000010930 P29460
0000010930 0000259488
0000010930 Q9NPF7
0000010930 0000268662
0000010930 P42701
0000010930 Q5VWK5
0000010930 0000010917
P29460 0000259488
P29460 Q9NPF7
P29460 0000268662
P29460 P42701
P29460 Q5VWK5
P29460 0000010917
P01112 Q07889
P01112 P62136
P01112 Q9UQ13
Q8IXJ9 Q92560
P35250 P35249
P35250 P40938
P35250 P35251
P35250 P40937
P35250 O75943
P35250 Q96QE3
P35250 Q9BVC3
P35250 P0CG13
P35250 Q8WVB6
P35249 P40938
P35249 P35251
P35249 P40937
P35249 O75943
P35249 Q96QE3
P35249 Q9BVC3
P35249 P0CG13
P35249 Q8WVB6
P40938 P35251
P40938 P40937
P40938 O75943
P40938 Q96QE3
P40938 Q9BVC3
P40938 P0CG13
P40938 Q8WVB6
P35251 P40937
P40937 O75943
P40937 Q96QE3
P40937 Q9BVC3
P40937 P0CG13
P40937 Q8WVB6
Q08945 Q9Y5B9
O60264 Q9UIF9
O60264 Q9NRL2
O60264 Q96T23
O60264 Q9UIG0
O60264 Q9NRG0
O60264 Q9NRF9
O60264 O75533
O60264 Q9BQG0
O60264 O00159
O60264 Q03468
O60264 Q9NR30
O60264 P35659
O60264 Q9BXF3
Q9NRL2 Q9NRG0
Q9NRL2 Q9NRF9
Q9BXF3 P28370
P28370 Q09028
P28370 Q12830
P28370 Q16576
Q13201 0000367047
Q13201 0000367048
O43463 Q96EB6
O43463 O43159
Q96EB6 O43159
Q9Y468 Q13185
P04004 P05121
P04004 P00749
P04004 Q03405
P05121 P00749
P05121 P00750
Q9Y2L1 Q96B26
Q9Y2L1 Q5RKV6
Q9Y2L1 Q9Y3B2
Q9Y2L1 Q15024
Q9Y2L1 Q9NQT4
Q9Y2L1 Q9NPD3
Q9Y2L1 Q06265
Q9Y2L1 Q01780
Q9Y2L1 Q9NQT5
Q9Y2L1 Q13868
Q96B26 Q5RKV6
Q96B26 Q9Y3B2
Q96B26 Q15024
Q96B26 Q9NQT4
Q96B26 Q9NPD3
Q96B26 Q06265
Q96B26 Q01780
Q96B26 Q9NQT5
Q96B26 Q13868
Q96B26 Q8TF46
Q5RKV6 Q9Y3B2
Q5RKV6 Q15024
Q5RKV6 Q9NQT4
Q5RKV6 Q9NPD3
Q5RKV6 Q06265
Q5RKV6 Q01780
Q5RKV6 Q9NQT5
Q5RKV6 Q13868
Q5RKV6 Q8TF46
Q9Y3B2 Q15024
Q9Y3B2 Q9NQT4
Q9Y3B2 Q9NPD3
Q9Y3B2 Q06265
Q9Y3B2 Q01780
Q9Y3B2 Q9NQT5
Q9Y3B2 Q13868
Q9Y3B2 Q8TF46
Q15024 Q9NQT4
Q15024 Q9NPD3
Q15024 Q06265
Q15024 Q01780
Q15024 Q9NQT5
Q15024 Q13868
Q15024 Q8TF46
Q9NQT4 Q9NPD3
Q9NQT4 Q06265
Q9NQT4 Q01780
Q9NQT4 Q9NQT5
Q9NQT4 Q13868
Q9NQT4 Q8TF46
Q9NPD3 Q06265
Q9NPD3 Q01780
Q9NPD3 Q9NQT5
Q9NPD3 Q13868
Q9NPD3 Q8TF46
Q06265 Q01780
Q06265 Q9NQT5
Q06265 Q13868
Q06265 Q8TF46
Q01780 Q9NQT5
Q01780 Q13868
Q01780 Q8TF46
Q9NQT5 Q13868
Q9NQT5 Q8TF46
Q13868 Q8TF46
Q13619 P62877
Q13619 Q9NV06
Q13619 Q8TEB1
Q13619 Q5T6F0
Q13619 Q8WWQ0
Q13619 Q9NXF7
Q13619 Q5H9S7
Q13619 Q13216
Q13619 Q96SW2
Q13619 Q66K64
Q13619 Q9BW61
Q13619 Q9Y4B6
Q13619 Q96JK2
Q13619 Q58WW2
Q13619 P61962
Q13619 Q8N5D0
Q13619 Q9NZJ0
Q13619 Q9C0C7
Q13619 Q8WV16
Q13619 Q5QP82
Q13619 Q5TAQ9
P62877 Q13620
P62877 Q9UKT8
P62877 Q13616
P62877 P63208
P62877 P57775
P62877 Q969U6
P62877 Q969H0
P62877 Q14999
P62877 Q8N3Y1
P62877 Q5XUX1
P62877 Q5XX13
P62877 Q9UKB1
P62877 Q6X9E4
P62877 P41002
P62877 Q9UK22
P62877 Q9UK99
P62877 Q9UKT5
P62877 Q9UKT4
P62877 Q9NRD1
P62877 Q9Y3I1
P62877 Q9NRD0
P62877 Q9UK97
P62877 Q9UK96
P62877 Q86XK2
P62877 Q8NCQ5
P62877 Q8IX29
P62877 Q96EF6
P62877 Q8NFZ0
P62877 Q8WWI1
P62877 O94952
P62877 Q8NEZ5
P62877 O75426
P62877 Q8TCJ0
P62877 Q8NI29
P62877 Q9NVF7
P62877 Q8TB52
P62877 Q5XUX0
P62877 Q969P5
P62877 Q7Z6M2
P62877 Q9NWN3
P62877 Q8NEA4
P62877 Q6PIJ6
P62877 Q8N4B4
P62877 Q9UH90
P62877 Q8TF61
P62877 Q6P3S6
P62877 Q4G163
P62877 Q9H4M3
P62877 Q6PJ61
P62877 Q5MNV8
P62877 Q9NR64
P62877 Q13618
P62877 O95198
P62877 Q9UH77
P62877 Q9C0H6
P62877 Q96PQ7
P62877 Q8WZ60
P62877 Q9P2J3
P62877 Q8IXQ5
P62877 Q9P2G9
P62877 Q6JEL2
P62877 Q9NVR0
P62877 Q53G59
P62877 Q9P2N7
P62877 Q9P2G3
P62877 Q96M94
P62877 Q9H2C0
P62877 Q6TDP4
P62877 O94889
P62877 Q14145
P62877 Q96FV3
P62877 Q9Y2M5
P62877 Q9UJP4
P62877 Q53GT1
P62877 Q8NBE8
P62877 Q6TFL4
P62877 Q9H0H3
P62877 Q53HC5
P62877 Q9Y573
P62877 Q9NXS3
P62877 Q96CT2
P62877 Q0D2K2
P62877 Q9H511
P62877 Q96NJ5
P62877 Q8N239
P62877 Q6PF15
P62877 Q8N4N3
P62877 O14682
P62877 Q2WGJ6
P62877 Q2TBA0
P62877 O60662
P62877 Q9P2K6
P62877 O43791
P62877 Q6IQ16
P62877 Q8IY47
P62877 Q9NVX7
P62877 Q86V97
P62877 Q8WVZ9
P62877 Q8NFY9
P62877 Q8NAB2
P62877 C9JR72
P62877 Q96L50
P62877 Q15369
P62877 Q15370
P62877 Q13617
P62877 Q9BSK4
P62877 Q9UK73
P62877 Q96JP0
P62877 Q9C0D3
P62877 Q92624
P62877 Q7Z7L7
P62877 Q6PID8
P62877 Q9Y2U9
P62877 Q9BQ90
P62877 P78395
P62877 Q9UKA1
P62877 Q8NEE6
P62877 P40337
P62877 Q8N1E6
P62877 Q8N461
P62877 Q9Y297
P62877 Q9NV06
P62877 Q8TEB1
P62877 Q5T6F0
P62877 Q8WWQ0
P62877 Q9NXF7
P62877 Q5H9S7
P62877 Q96CD0
P62877 Q6P050
P62877 Q9H469
P62877 Q9UKA2
P62877 Q8N531
P62877 Q9Y2K7
P62877 Q96ME1
P62877 Q6PCT2
P62877 Q9NXK8
P62877 Q9UJT9
P62877 Q9UKT6
P62877 Q13216
P62877 Q96SW2
P62877 Q66K64
P62877 Q9BW61
P62877 Q9Y4B6
P62877 Q9UF56
P62877 Q9NZJ0
P62877 Q9C0C7
P62877 Q96JK2
P62877 Q58WW2
P62877 P61962
P62877 Q8N5D0
P62877 Q8WV16
P62877 Q5TAQ9
P62877 Q5QP82
P62877 Q8NHM5
P62877 Q96IG2
P62877 Q9UKT7
P62877 Q9UKC9
P62877 Q13309
Q92889 P07992
P05412 P01100
P05412 Q13469
P05412 P15336
P05412 P18847
P05412 P17544
P05412 Q16520
P05412 Q8N1L9
P05412 Q9NR55
P01100 Q13469
P01100 P15336
P01100 P18847
P01100 P17544
P01100 O14867
O43521 Q07817
O43521 P10415
Q68E01 Q9NRY2
Q68E01 Q9BQ15
Q68E01 Q96AH0
Q68E01 Q9NVH2
Q68E01 Q5TA45
Q68E01 Q8N201
Q68E01 Q9UL03
Q68E01 Q96CB8
Q68E01 Q9NVR2
Q68E01 Q9H0H0
Q68E01 Q9NV88
Q68E01 Q96N11
Q68E01 Q96SY0
Q68E01 Q96HW7
Q68E01 Q9NVM9
Q68E01 Q75QN2
Q68E01 Q6P9B9
Q68E01 P67775
Q68E01 P30153
Q9NRY2 Q9BQ15
Q9NRY2 Q96AH0
P00749 Q03405
Q8IY92 Q9BQ83
Q13404 P61088
P61088 Q15819
Q9P0L0 P22059
P19793 O75469
P19793 P10276
P19793 Q15596
P19793 P11473
P19793 Q13133
P19793 P10828
P19793 P10827
P19793 P55055
P19793 Q15788
O75469 Q15788
P17535 O00255
P17535 P15336
P17535 P17544
P17535 Q16520
P17535 Q9NR55
O00255 P51610
O00255 Q9C005
O00255 Q9Y5Z7
O00255 P61964
O00255 Q15291
O00255 Q9UBL3
O00255 Q03164
O00255 Q9UMN6
P07686 P06865
Q9BVC4 P42345
Q9BVC4 Q8N122
Q9BVC4 Q6R327
Q9BVC4 P85299
Q9BVC4 Q9BPZ7
P42345 Q8N122
P42345 Q6R327
P42345 P85299
P42345 Q9BPZ7
P23458 P05113
P23458 Q01344
P23458 P29597
P23458 P32927
P23458 O60674
P05113 Q01344
P05113 P29597
P05113 P32927
P05113 O60674
Q01344 P29597
Q01344 P32927
Q01344 O60674
P29597 P32927
P29597 O60674
P32927 O60674
P32927 P04141
P32927 P15509
P32927 P08700
P32927 P26951
O60674 P04141
O60674 P15509
P10276 Q15788
P10276 Q15596
Q96AY2 Q96NY9
Q96NY9 A4GXA9
P04141 P15509
Q15596 P37231
Q15596 P03372
Q15788 P37231
P52657 P52655
P01584 P27930
P01584 Q9NPH3
P01584 0000015302
P01584 0000015435
P01584 P14778
P01584 0000415344
P27930 Q9NPH3
P27930 0000015302
P27930 P01583
Q9NPH3 0000015302
Q9NPH3 0000015435
Q9NPH3 P14778
Q9NPH3 0000415344
Q9NPH3 P01583
Q9NPH3 0000015266
Q9NPH3 O95760
Q9NPH3 Q01638
Q9NPH3 Q9HB29
Q9NPH3 Q9UHA7
Q9NPH3 0000153644
Q9NPH3 Q9NZH7
Q9NPH3 0000153646
Q9NPH3 0000153648
Q9NPH3 Q9NZH8
0000015302 0000015435
0000015302 P14778
0000015302 0000415344
0000015435 P14778
0000015435 P01583
0000015435 0000015266
P14778 0000415344
P14778 P01583
P14778 0000015266
P14778 P18510
P36897 P01137
P36897 P37173
P36897 0000033763
P36897 P61812
P36897 0000033785
P36897 0000033797
P36897 P10600
P01137 P37173
P01137 0000033763
P37173 0000033763
P37173 P61812
P37173 0000033785
P37173 0000033797
P37173 P10600
O14777 Q8NBT2
O14777 Q9HBM1
O14777 Q9BZD4
Q8NBT2 Q9HBM1
Q8NBT2 Q9BZD4
Q9HBM1 Q9BZD4
P51553 O43837
P51553 P50213
O43837 P50213
O14957 Q9UDW1
O14957 P14927
O14957 P07919
O14957 P08574
O14957 P00156
O14957 P31930
O14957 0000307241
O14957 P22695
O14957 O14949
O14957 0000030664
O14957 P47985
Q9UDW1 P14927
Q9UDW1 P07919
Q9UDW1 P08574
Q9UDW1 P00156
Q9UDW1 P31930
Q9UDW1 0000307241
Q9UDW1 P22695
Q9UDW1 O14949
Q9UDW1 0000030664
Q9UDW1 P47985
P14927 P07919
P14927 P08574
P14927 P00156
P14927 P31930
P14927 0000307241
P14927 P22695
P14927 O14949
P14927 0000030664
P14927 P47985
P07919 P08574
P07919 P00156
P07919 P31930
P07919 0000307241
P07919 P22695
P07919 O14949
P07919 0000030664
P07919 P47985
P08574 P00156
P08574 P31930
P08574 0000307241
P08574 P22695
P08574 O14949
P08574 0000030664
P08574 P47985
P00156 P31930
P00156 0000307241
P00156 P22695
P00156 O14949
P00156 0000030664
P00156 P47985
P31930 0000307241
P31930 P22695
P31930 O14949
P31930 0000030664
P31930 P47985
0000307241 P22695
0000307241 O14949
0000307241 0000030664
0000307241 P47985
P22695 O14949
P22695 0000030664
P22695 P47985
O14949 0000030664
O14949 P47985
0000030664 P47985
190135 P21912
190135 O14521
190135 Q99643
190135 P31040
190135 Q9NRK6
190135 P22830
190135 O75027
P21912 O14521
P21912 Q99643
P21912 P31040
O14521 Q99643
O14521 P31040
Q99643 P31040
Q13112 Q13111
Q13112 Q09028
Q13111 Q09028
Q09028 Q12830
Q09028 Q16576
Q09028 Q14839
Q09028 Q92769
Q09028 Q12873
Q09028 O94776
Q09028 Q13330
Q09028 Q86YP4
Q09028 Q9BTC8
Q09028 Q9UBB5
Q09028 Q13547
Q09028 Q8WXI9
Q09028 O95983
Q09028 Q4LE39
Q09028 Q9HCU9
Q09028 Q5PSV4
Q09028 Q9H7L9
Q09028 Q9H160
Q09028 Q9H0E3
Q09028 Q9HAJ7
Q09028 Q9UK53
Q09028 O75446
Q09028 P29374
Q09028 Q96ST3
Q09028 O15294
Q09028 Q8NFU7
Q09028 Q9NP50
Q09028 O75182
Q09028 Q52LA3
Q09028 Q96GY3
Q09028 Q5TKA1
Q09028 Q14188
Q09028 Q6MZP7
Q09028 Q08999
Q09028 Q16254
Q09028 Q15329
Q09028 P10244
Q09028 Q08050
Q09028 Q92800
Q09028 O75530
Q09028 Q5T6S3
Q09028 Q96JN0
Q09028 Q15022
Q09028 Q15910
Q09028 O43189
Q09028 Q6ZN18
Q09028 Q92833
Q09028 Q9Y483
Q09028 A6NHQ4
Q09028 P28749
P03901 Q16718
P03901 Q9Y6M9
P03901 P03915
P03901 P17568
P03901 O15239
P03901 P28331
P03901 P49821
P03901 P56181
P03901 P03923
P03901 O75380
P03901 O95182
P03901 P03897
P03901 Q9UI09
P03901 P03886
P03901 P51970
P03901 P56556
P03901 Q16795
P03901 P03905
P03901 O43181
P03901 O95168
P03901 Q9P0J0
P03901 O95299
P03901 O75438
P03901 O43920
P03901 O43678
P03901 O95169
P03901 Q9NX14
P03901 O95167
P03901 P19404
P03901 O95139
P03901 O75489
P03901 O95178
P03901 O75251
P03901 O95298
P03901 P03891
P03901 O00217
P03901 O96000
P03901 O43676
P03901 O43677
P03901 O43674
P03901 O75306
P03901 O14561
P03901 Q86Y39
Q16718 Q9Y6M9
Q16718 P03915
Q16718 P17568
Q16718 O15239
Q16718 P28331
Q16718 P49821
Q16718 P56181
Q16718 P03923
Q16718 O75380
Q16718 O95182
Q16718 P03897
Q16718 Q9UI09
Q16718 P03886
Q16718 P51970
Q16718 P56556
Q16718 Q16795
Q16718 P03905
Q16718 O43181
Q16718 O95168
Q16718 Q9P0J0
Q16718 O95299
Q16718 O75438
Q16718 O43920
Q16718 O43678
Q16718 O95169
Q16718 Q9NX14
Q16718 O95167
Q16718 P19404
Q16718 O95139
Q16718 O75489
Q16718 O95178
Q16718 O75251
Q16718 O95298
Q16718 P03891
Q16718 O00217
Q16718 O96000
Q16718 O43676
Q16718 O43677
Q16718 O43674
Q16718 O75306
Q16718 O14561
Q16718 Q86Y39
Q9Y6M9 P03915
Q9Y6M9 P17568
Q9Y6M9 O15239
Q9Y6M9 P28331
Q9Y6M9 P49821
Q9Y6M9 P56181
Q9Y6M9 P03923
Q9Y6M9 O75380
Q9Y6M9 O95182
Q9Y6M9 P03897
Q9Y6M9 Q9UI09
Q9Y6M9 P03886
Q9Y6M9 P51970
Q9Y6M9 P56556
Q9Y6M9 Q16795
Q9Y6M9 P03905
Q9Y6M9 O43181
Q9Y6M9 O95168
Q9Y6M9 Q9P0J0
Q9Y6M9 O95299
Q9Y6M9 O75438
Q9Y6M9 O43920
Q9Y6M9 O43678
Q9Y6M9 O95169
Q9Y6M9 Q9NX14
Q9Y6M9 O95167
Q9Y6M9 P19404
Q9Y6M9 O95139
Q9Y6M9 O75489
Q9Y6M9 O95178
Q9Y6M9 O75251
Q9Y6M9 O95298
Q9Y6M9 P03891
Q9Y6M9 O00217
Q9Y6M9 O96000
Q9Y6M9 O43676
Q9Y6M9 O43677
Q9Y6M9 O43674
Q9Y6M9 O75306
Q9Y6M9 O14561
Q9Y6M9 Q86Y39
P03915 P17568
P03915 O15239
P03915 P28331
P03915 P49821
P03915 P56181
P03915 P03923
P03915 O75380
P03915 O95182
P03915 P03897
P03915 Q9UI09
P03915 P03886
P03915 P51970
P03915 P56556
P03915 Q16795
P03915 P03905
P03915 O43181
P03915 O95168
P03915 Q9P0J0
P03915 O95299
P03915 O75438
P03915 O43920
P03915 O43678
P03915 O95169
P03915 Q9NX14
P03915 O95167
P03915 P19404
P03915 O95139
P03915 O75489
P03915 O95178
P03915 O75251
P03915 O95298
P03915 P03891
P03915 O00217
P03915 O96000
P03915 O43676
P03915 O43677
P03915 O43674
P03915 O75306
P03915 O14561
P03915 Q86Y39
P17568 O15239
P17568 P28331
P17568 P49821
P17568 P56181
P17568 P03923
P17568 O75380
P17568 O95182
P17568 P03897
P17568 Q9UI09
P17568 P03886
P17568 P51970
P17568 P56556
P17568 Q16795
P17568 P03905
P17568 O43181
P17568 O95168
P17568 Q9P0J0
P17568 O95299
P17568 O75438
P17568 O43920
P17568 O43678
P17568 O95169
P17568 Q9NX14
P17568 O95167
P17568 P19404
P17568 O95139
P17568 O75489
P17568 O95178
P17568 O75251
P17568 O95298
P17568 P03891
P17568 O00217
P17568 O96000
P17568 O43676
P17568 O43677
P17568 O43674
P17568 O75306
P17568 O14561
P17568 Q86Y39
O15239 P28331
O15239 P49821
O15239 P56181
O15239 P03923
O15239 O75380
O15239 O95182
O15239 P03897
O15239 Q9UI09
O15239 P03886
O15239 P51970
O15239 P56556
O15239 Q16795
O15239 P03905
O15239 O43181
O15239 O95168
O15239 Q9P0J0
O15239 O95299
O15239 O75438
O15239 O43920
O15239 O43678
O15239 O95169
O15239 Q9NX14
O15239 O95167
O15239 P19404
O15239 O95139
O15239 O75489
O15239 O95178
O15239 O75251
O15239 O95298
O15239 P03891
O15239 O00217
O15239 O96000
O15239 O43676
O15239 O43677
O15239 O43674
O15239 O75306
O15239 O14561
O15239 Q86Y39
P28331 P49821
P28331 P56181
P28331 P03923
P28331 O75380
P28331 O95182
P28331 P03897
P28331 Q9UI09
P28331 P03886
P28331 P51970
P28331 P56556
P28331 Q16795
P28331 P03905
P28331 O43181
P28331 O95168
P28331 Q9P0J0
P28331 O95299
P28331 O75438
P28331 O43920
P28331 O43678
P28331 O95169
P28331 Q9NX14
P28331 O95167
P28331 P19404
P28331 O95139
P28331 O75489
P28331 O95178
P28331 O75251
P28331 O95298
P28331 P03891
P28331 O00217
P28331 O96000
P28331 O43676
P28331 O43677
P28331 O43674
P28331 O75306
P28331 O14561
P28331 Q86Y39
P49821 P56181
P49821 P03923
P49821 O75380
P49821 O95182
P49821 P03897
P49821 Q9UI09
P49821 P03886
P49821 P51970
P49821 P56556
P49821 Q16795
P49821 P03905
P49821 O43181
P49821 O95168
P49821 Q9P0J0
P49821 O95299
P49821 O75438
P49821 O43920
P49821 O43678
P49821 O95169
P49821 Q9NX14
P49821 O95167
P49821 P19404
P49821 O95139
P49821 O75489
P49821 O95178
P49821 O75251
P49821 O95298
P49821 P03891
P49821 O00217
P49821 O96000
P49821 O43676
P49821 O43677
P49821 O43674
P49821 O75306
P49821 O14561
P49821 Q86Y39
P56181 P03923
P56181 O75380
P56181 O95182
P56181 P03897
P56181 Q9UI09
P56181 P03886
P56181 P51970
P56181 P56556
P56181 Q16795
P56181 P03905
P56181 O43181
P56181 O95168
P56181 Q9P0J0
P56181 O95299
P56181 O75438
P56181 O43920
P56181 O43678
P56181 O95169
P56181 Q9NX14
P56181 O95167
P56181 P19404
P56181 O95139
P56181 O75489
P56181 O95178
P56181 O75251
P56181 O95298
P56181 P03891
P56181 O00217
P56181 O96000
P56181 O43676
P56181 O43677
P56181 O43674
P56181 O75306
P56181 O14561
P56181 Q86Y39
P03923 O75380
P03923 O95182
P03923 P03897
P03923 Q9UI09
P03923 P03886
P03923 P51970
P03923 P56556
P03923 Q16795
P03923 P03905
P03923 O43181
P03923 O95168
P03923 Q9P0J0
P03923 O95299
P03923 O75438
P03923 O43920
P03923 O43678
P03923 O95169
P03923 Q9NX14
P03923 O95167
P03923 P19404
P03923 O95139
P03923 O75489
P03923 O95178
P03923 O75251
P03923 O95298
P03923 P03891
P03923 O00217
P03923 O96000
P03923 O43676
P03923 O43677
P03923 O43674
P03923 O75306
P03923 O14561
P03923 Q86Y39
O75380 O95182
O75380 P03897
O75380 Q9UI09
O75380 P03886
O75380 P51970
O75380 P56556
O75380 Q16795
O75380 P03905
O75380 O43181
O75380 O95168
O75380 Q9P0J0
O75380 O95299
O75380 O75438
O75380 O43920
O75380 O43678
O75380 O95169
O75380 Q9NX14
O75380 O95167
O75380 P19404
O75380 O95139
O75380 O75489
O75380 O95178
O75380 O75251
O75380 O95298
O75380 P03891
O75380 O00217
O75380 O96000
O75380 O43676
O75380 O43677
O75380 O43674
O75380 O75306
O75380 O14561
O75380 Q86Y39
O95182 P03897
O95182 Q9UI09
O95182 P03886
O95182 P51970
O95182 P56556
O95182 Q16795
O95182 P03905
O95182 O43181
O95182 O95168
O95182 Q9P0J0
O95182 O95299
O95182 O75438
O95182 O43920
O95182 O43678
O95182 O95169
O95182 Q9NX14
O95182 O95167
O95182 P19404
O95182 O95139
O95182 O75489
O95182 O95178
O95182 O75251
O95182 O95298
O95182 P03891
O95182 O00217
O95182 O96000
O95182 O43676
O95182 O43677
O95182 O43674
O95182 O75306
O95182 O14561
O95182 Q86Y39
P03897 Q9UI09
P03897 P03886
P03897 P51970
P03897 P56556
P03897 Q16795
P03897 P03905
P03897 O43181
P03897 O95168
P03897 Q9P0J0
P03897 O95299
P03897 O75438
P03897 O43920
P03897 O43678
P03897 O95169
P03897 Q9NX14
P03897 O95167
P03897 P19404
P03897 O95139
P03897 O75489
P03897 O95178
P03897 O75251
P03897 O95298
P03897 P03891
P03897 O00217
P03897 O96000
P03897 O43676
P03897 O43677
P03897 O43674
P03897 O75306
P03897 O14561
P03897 Q86Y39
Q9UI09 P03886
Q9UI09 P51970
Q9UI09 P56556
Q9UI09 Q16795
Q9UI09 P03905
Q9UI09 O43181
Q9UI09 O95168
Q9UI09 Q9P0J0
Q9UI09 O95299
Q9UI09 O75438
Q9UI09 O43920
Q9UI09 O43678
Q9UI09 O95169
Q9UI09 Q9NX14
Q9UI09 O95167
Q9UI09 P19404
Q9UI09 O95139
Q9UI09 O75489
Q9UI09 O95178
Q9UI09 O75251
Q9UI09 O95298
Q9UI09 P03891
Q9UI09 O00217
Q9UI09 O96000
Q9UI09 O43676
Q9UI09 O43677
Q9UI09 O43674
Q9UI09 O75306
Q9UI09 O14561
Q9UI09 Q86Y39
P03886 P51970
P03886 P56556
P03886 Q16795
P03886 P03905
P03886 O43181
P03886 O95168
P03886 Q9P0J0
P03886 O95299
P03886 O75438
P03886 O43920
P03886 O43678
P03886 O95169
P03886 Q9NX14
P03886 O95167
P03886 P19404
P03886 O95139
P03886 O75489
P03886 O95178
P03886 O75251
P03886 O95298
P03886 P03891
P03886 O00217
P03886 O96000
P03886 O43676
P03886 O43677
P03886 O43674
P03886 O75306
P03886 O14561
P03886 Q86Y39
P51970 P56556
P51970 Q16795
P51970 P03905
P51970 O43181
P51970 O95168
P51970 Q9P0J0
P51970 O95299
P51970 O75438
P51970 O43920
P51970 O43678
P51970 O95169
P51970 Q9NX14
P51970 O95167
P51970 P19404
P51970 O95139
P51970 O75489
P51970 O95178
P51970 O75251
P51970 O95298
P51970 P03891
P51970 O00217
P51970 O96000
P51970 O43676
P51970 O43677
P51970 O43674
P51970 O75306
P51970 O14561
P51970 Q86Y39
P56556 Q16795
P56556 P03905
P56556 O43181
P56556 O95168
P56556 Q9P0J0
P56556 O95299
P56556 O75438
P56556 O43920
P56556 O43678
P56556 O95169
P56556 Q9NX14
P56556 O95167
P56556 P19404
P56556 O95139
P56556 O75489
P56556 O95178
P56556 O75251
P56556 O95298
P56556 P03891
P56556 O00217
P56556 O96000
P56556 O43676
P56556 O43677
P56556 O43674
P56556 O75306
P56556 O14561
P56556 Q86Y39
Q16795 P03905
Q16795 O43181
Q16795 O95168
Q16795 Q9P0J0
Q16795 O95299
Q16795 O75438
Q16795 O43920
Q16795 O43678
Q16795 O95169
Q16795 Q9NX14
Q16795 O95167
Q16795 P19404
Q16795 O95139
Q16795 O75489
Q16795 O95178
Q16795 O75251
Q16795 O95298
Q16795 P03891
Q16795 O00217
Q16795 O96000
Q16795 O43676
Q16795 O43677
Q16795 O43674
Q16795 O75306
Q16795 O14561
Q16795 Q86Y39
P03905 O43181
P03905 O95168
P03905 Q9P0J0
P03905 O95299
P03905 O75438
P03905 O43920
P03905 O43678
P03905 O95169
P03905 Q9NX14
P03905 O95167
P03905 P19404
P03905 O95139
P03905 O75489
P03905 O95178
P03905 O75251
P03905 O95298
P03905 P03891
P03905 O00217
P03905 O96000
P03905 O43676
P03905 O43677
P03905 O43674
P03905 O75306
P03905 O14561
P03905 Q86Y39
O43181 O95168
O43181 Q9P0J0
O43181 O95299
O43181 O75438
O43181 O43920
O43181 O43678
O43181 O95169
O43181 Q9NX14
O43181 O95167
O43181 P19404
O43181 O95139
O43181 O75489
O43181 O95178
O43181 O75251
O43181 O95298
O43181 P03891
O43181 O00217
O43181 O96000
O43181 O43676
O43181 O43677
O43181 O43674
O43181 O75306
O43181 O14561
O43181 Q86Y39
O95168 Q9P0J0
O95168 O95299
O95168 O75438
O95168 O43920
O95168 O43678
O95168 O95169
O95168 Q9NX14
O95168 O95167
O95168 P19404
O95168 O95139
O95168 O75489
O95168 O95178
O95168 O75251
O95168 O95298
O95168 P03891
O95168 O00217
O95168 O96000
O95168 O43676
O95168 O43677
O95168 O43674
O95168 O75306
O95168 O14561
O95168 Q86Y39
Q9P0J0 O95299
Q9P0J0 O75438
Q9P0J0 O43920
Q9P0J0 O43678
Q9P0J0 O95169
Q9P0J0 Q9NX14
Q9P0J0 O95167
Q9P0J0 P19404
Q9P0J0 O95139
Q9P0J0 O75489
Q9P0J0 O95178
Q9P0J0 O75251
Q9P0J0 O95298
Q9P0J0 P03891
Q9P0J0 O00217
Q9P0J0 O96000
Q9P0J0 O43676
Q9P0J0 O43677
Q9P0J0 O43674
Q9P0J0 O75306
Q9P0J0 O14561
Q9P0J0 Q86Y39
O95299 O75438
O95299 O43920
O95299 O43678
O95299 O95169
O95299 Q9NX14
O95299 O95167
O95299 P19404
O95299 O95139
O95299 O75489
O95299 O95178
O95299 O75251
O95299 O95298
O95299 P03891
O95299 O00217
O95299 O96000
O95299 O43676
O95299 O43677
O95299 O43674
O95299 O75306
O95299 O14561
O95299 Q86Y39
O75438 O43920
O75438 O43678
O75438 O95169
O75438 Q9NX14
O75438 O95167
O75438 P19404
O75438 O95139
O75438 O75489
O75438 O95178
O75438 O75251
O75438 O95298
O75438 P03891
O75438 O00217
O75438 O96000
O75438 O43676
O75438 O43677
O75438 O43674
O75438 O75306
O75438 O14561
O75438 Q86Y39
O43920 O43678
O43920 O95169
O43920 Q9NX14
O43920 O95167
O43920 P19404
O43920 O95139
O43920 O75489
O43920 O95178
O43920 O75251
O43920 O95298
O43920 P03891
O43920 O00217
O43920 O96000
O43920 O43676
O43920 O43677
O43920 O43674
O43920 O75306
O43920 O14561
O43920 Q86Y39
O43678 O95169
O43678 Q9NX14
O43678 O95167
O43678 P19404
O43678 O95139
O43678 O75489
O43678 O95178
O43678 O75251
O43678 O95298
O43678 P03891
O43678 O00217
O43678 O96000
O43678 O43676
O43678 O43677
O43678 O43674
O43678 O75306
O43678 O14561
O43678 Q86Y39
O95169 Q9NX14
O95169 O95167
O95169 P19404
O95169 O95139
O95169 O75489
O95169 O95178
O95169 O75251
O95169 O95298
O95169 P03891
O95169 O00217
O95169 O96000
O95169 O43676
O95169 O43677
O95169 O43674
O95169 O75306
O95169 O14561
O95169 Q86Y39
Q9NX14 O95167
Q9NX14 P19404
Q9NX14 O95139
Q9NX14 O75489
Q9NX14 O95178
Q9NX14 O75251
Q9NX14 O95298
Q9NX14 P03891
Q9NX14 O00217
Q9NX14 O96000
Q9NX14 O43676
Q9NX14 O43677
Q9NX14 O43674
Q9NX14 O75306
Q9NX14 O14561
Q9NX14 Q86Y39
O95167 P19404
O95167 O95139
O95167 O75489
O95167 O95178
O95167 O75251
O95167 O95298
O95167 P03891
O95167 O00217
O95167 O96000
O95167 O43676
O95167 O43677
O95167 O43674
O95167 O75306
O95167 O14561
O95167 Q86Y39
P19404 O95139
P19404 O75489
P19404 O95178
P19404 O75251
P19404 O95298
P19404 P03891
P19404 O00217
P19404 O96000
P19404 O43676
P19404 O43677
P19404 O43674
P19404 O75306
P19404 O14561
P19404 Q86Y39
O95139 O75489
O95139 O95178
O95139 O75251
O95139 O95298
O95139 P03891
O95139 O00217
O95139 O96000
O95139 O43676
O95139 O43677
O95139 O43674
O95139 O75306
O95139 O14561
O95139 Q86Y39
O75489 O95178
O75489 O75251
O75489 O95298
O75489 P03891
O75489 O00217
O75489 O96000
O75489 O43676
O75489 O43677
O75489 O43674
O75489 O75306
O75489 O14561
O75489 Q86Y39
O95178 O75251
O95178 O95298
O95178 P03891
O95178 O00217
O95178 O96000
O95178 O43676
O95178 O43677
O95178 O43674
O95178 O75306
O95178 O14561
O95178 Q86Y39
O75251 O95298
O75251 P03891
O75251 O00217
O75251 O96000
O75251 O43676
O75251 O43677
O75251 O43674
O75251 O75306
O75251 O14561
O75251 Q86Y39
O95298 P03891
O95298 O00217
O95298 O96000
O95298 O43676
O95298 O43677
O95298 O43674
O95298 O75306
O95298 O14561
O95298 Q86Y39
P03891 O00217
P03891 O96000
P03891 O43676
P03891 O43677
P03891 O43674
P03891 O75306
P03891 O14561
P03891 Q86Y39
O00217 O96000
O00217 O43676
O00217 O43677
O00217 O43674
O00217 O75306
O00217 O14561
O00217 Q86Y39
O96000 O43676
O96000 O43677
O96000 O43674
O96000 O75306
O96000 O14561
O96000 Q86Y39
O43676 O43677
O43676 O43674
O43676 O75306
O43676 O14561
O43676 Q86Y39
O43677 O43674
O43677 O75306
O43677 O14561
O43677 Q86Y39
O43674 O75306
O43674 O14561
O43674 Q86Y39
O75306 O14561
O75306 Q86Y39
O14561 Q86Y39
O14561 Q9H1K1
O14561 Q9HD34
O14561 597326
O14561 Q9Y697
O14561 Q6P4F2
O14561 Q16595
P50613 P51948
P50613 P51946
P50613 Q13888
P50613 P32780
P50613 Q6ZYL4
P50613 P19447
P50613 P18074
P50613 Q92759
P50613 Q13889
P51948 P51946
P51948 Q13888
P51948 P32780
P51948 Q6ZYL4
P51948 P19447
P51948 P18074
P51948 Q92759
P51948 Q13889
P51946 Q13888
P51946 P32780
P51946 Q6ZYL4
P51946 P19447
P51946 P18074
P51946 Q92759
P51946 Q13889
0000033785 P61812
0000033797 P10600
Q13426 P49917
P08240 Q9Y5M8
P11473 P28702
Q13133 P28702
Q01658 Q14919
Q01658 Q96ES7
Q01658 O75478
Q01658 P61964
Q01658 O75528
Q01658 Q8IYH5
Q01658 Q9ULM3
Q01658 Q9H8E8
Q01658 Q92830
Q01658 Q9NS73
Q01658 Q92831
Q13620 Q8TEB1
Q13620 Q5T6F0
Q13620 Q9NV06
Q13620 Q8WWQ0
Q13620 Q9NXF7
Q13620 Q5H9S7
Q13620 Q13216
Q13620 Q96SW2
Q13620 Q66K64
Q13620 Q9BW61
Q13620 Q9Y4B6
Q13620 Q9NZJ0
Q13620 Q9C0C7
Q13620 Q96JK2
Q13620 P61962
Q13620 Q58WW2
Q13620 Q8N5D0
Q13620 Q5TAQ9
Q13620 Q5QP82
Q13620 Q8WV16
P28702 P55055
Q00013 P11171
Q00013 P04921
P11171 P04921
O75496 Q9H211
O75496 P31274
O75496 D6RGH6
O75496 P28358
O15151 P04637
O15151 Q00987
P04637 Q00987
P01225 P01215
P01215 P0DN86
P01215 P01222
P01215 0000011746
P01215 P01229
Q08209 P24588
Q08209 P63098
Q08209 Q96LZ3
P24588 P63098
P24588 P16298
P24588 P48454
P24588 Q96LZ3
P63098 P16298
P63098 P48454
Q13765 P20290
P13671 0000005985
P13671 P01031
P13671 0000005989
P13671 P10643
P13671 P07360
P13671 P02748
P13671 P07358
P13671 P07357
0000005985 P01031
0000005985 0000005989
0000005985 P10643
0000005985 P07360
0000005985 P02748
0000005985 P07358
0000005985 P07357
P01031 0000005989
P01031 P10643
P01031 P07360
P01031 P02748
P01031 P07358
P01031 P07357
0000005989 P10643
0000005989 P07360
0000005989 P02748
0000005989 P07358
0000005989 P07357
Q96A72 Q9Y5S9
Q96A72 O15234
Q96A72 P38919
Q9Y5S9 O15234
Q9Y5S9 P38919
Q9Y5S9 P61326
Q9Y5S9 Q86V81
Q9Y5S9 Q9P013
Q9Y5S9 Q9HCG8
Q9Y5S9 Q14562
Q9Y5S9 O75934
Q9Y5S9 O95926
Q9Y5S9 Q9UNP9
Q9Y5S9 P08579
Q9Y5S9 O43660
Q9Y5S9 Q9GZU8
Q9Y5S9 Q9HCS7
Q9Y5S9 P14678
Q9Y5S9 P62314
Q9Y5S9 P62318
Q9Y5S9 Q15029
Q9Y5S9 URS00006767A8
Q9Y5S9 Q6P2Q9
Q9Y5S9 P62304
Q9Y5S9 P62306
Q9Y5S9 P41223
Q9Y5S9 139356
Q9Y5S9 Q13573
Q9Y5S9 Q9UQ35
Q9Y5S9 Q9NW64
Q9Y5S9 P62308
Q9Y5S9 Q9Y3C6
Q9Y5S9 URS000075BAAE
Q9Y5S9 URS00006A1489
Q9Y5S9 O60306
Q9Y5S9 P09661
Q9Y5S9 O60508
Q9Y5S9 Q9UMS4
Q9Y5S9 P62316
Q9Y5S9 Q9BZJ0
Q9Y5S9 Q99459
Q9Y5S9 Q96DI7
Q9Y5S9 Q9Y421
Q9Y5S9 Q8WUQ7
Q9Y5S9 O95391
Q9Y5S9 Q9H875
Q9Y5S9 O75643
Q9Y5S9 Q8N5F7
O15234 P38919
O15234 Q9P013
O15234 Q9HCG8
O15234 Q14562
O15234 O75934
O15234 O95926
O15234 Q9UNP9
O15234 P08579
O15234 O43660
O15234 Q9GZU8
O15234 P61326
O15234 Q9HCS7
O15234 P14678
O15234 P62314
O15234 P62318
O15234 Q15029
O15234 URS00006767A8
O15234 Q6P2Q9
O15234 P62304
O15234 P62306
O15234 P41223
O15234 139356
O15234 Q13573
O15234 Q9UQ35
O15234 Q9NW64
O15234 P62308
O15234 Q9Y3C6
O15234 URS000075BAAE
O15234 URS00006A1489
O15234 O60306
O15234 P09661
O15234 O60508
O15234 Q9UMS4
O15234 P62316
O15234 Q9BZJ0
O15234 Q99459
O15234 Q96DI7
O15234 Q9Y421
O15234 Q8WUQ7
O15234 O95391
O15234 Q9H875
O15234 O75643
O15234 Q8N5F7
P38919 P61326
P38919 Q86V81
P38919 Q9P013
P38919 Q9HCG8
P38919 Q14562
P38919 O75934
P38919 O95926
P38919 Q9UNP9
P38919 P08579
P38919 O43660
P38919 Q9GZU8
P38919 Q9HCS7
P38919 P14678
P38919 P62314
P38919 P62318
P38919 Q15029
P38919 URS00006767A8
P38919 Q6P2Q9
P38919 P62304
P38919 P62306
P38919 P41223
P38919 139356
P38919 Q13573
P38919 Q9UQ35
P38919 Q9NW64
P38919 P62308
P38919 Q9Y3C6
P38919 URS000075BAAE
P38919 URS00006A1489
P38919 O60306
P38919 P09661
P38919 O60508
P38919 Q9UMS4
P38919 P62316
P38919 Q9BZJ0
P38919 Q99459
P38919 Q96DI7
P38919 Q9Y421
P38919 Q8WUQ7
P38919 O95391
P38919 Q9H875
P38919 O75643
P38919 Q8N5F7
Q12830 Q16576
Q16576 Q14839
Q16576 Q92769
Q16576 Q12873
Q16576 O94776
Q16576 Q13330
Q16576 Q86YP4
Q16576 Q9BTC8
Q16576 Q9UBB5
Q16576 Q13547
Q16576 Q8WXI9
Q16576 O95983
Q16576 Q4LE39
Q16576 Q9HCU9
Q16576 Q5PSV4
Q16576 Q9H7L9
Q16576 Q9H160
Q16576 Q9H0E3
Q16576 Q9HAJ7
Q16576 Q9UK53
Q16576 O75446
Q16576 P29374
Q16576 Q96ST3
Q16576 O15294
Q16576 Q8NFU7
Q16576 Q9NP50
Q16576 O75182
Q16576 A6NHQ4
Q16576 Q92800
Q16576 O75530
Q16576 O43189
Q16576 Q15022
Q16576 Q6ZN18
Q16576 Q92833
Q16576 Q15910
Q16576 Q96JN0
Q16576 Q9Y483
Q16576 Q5T6S3
O14744 Q9BQA1
O14744 P54105
O14744 Q9BRS2
O14744 Q9NQ92
Q9BQA1 P54105
Q9BQA1 Q9BRS2
Q9BQA1 Q9NQ92
O95628 O75175
O95628 Q9NZN8
O95628 Q9H9A5
O95628 Q9C0C2
O95628 A5YKK6
O95628 Q9ULM6
O95628 Q92600
O95628 Q9UIV1
O95628 Q9UKZ1
O95628 Q96LI5
O95628 Q9UFF9
O75175 Q9NZN8
O75175 Q9H9A5
O75175 Q9C0C2
O75175 A5YKK6
O75175 Q9ULM6
O75175 Q92600
O75175 Q9UIV1
O75175 Q9UKZ1
O75175 Q96LI5
O75175 Q9UFF9
Q9NZN8 Q9H9A5
Q9NZN8 Q9C0C2
Q9NZN8 A5YKK6
Q9NZN8 Q9ULM6
Q9NZN8 Q92600
Q9NZN8 Q9UIV1
Q9NZN8 Q9UKZ1
Q9NZN8 Q96LI5
Q9NZN8 Q9UFF9
Q9H9A5 Q9C0C2
Q9H9A5 A5YKK6
Q9H9A5 Q9ULM6
Q9H9A5 Q92600
Q9H9A5 Q9UIV1
Q9H9A5 Q9UKZ1
Q9H9A5 Q96LI5
Q9H9A5 Q9UFF9
Q9C0C2 A5YKK6
Q9C0C2 Q9ULM6
Q9C0C2 Q92600
Q9C0C2 Q9UIV1
Q9C0C2 Q9UKZ1
Q9C0C2 Q96LI5
Q9C0C2 Q9UFF9
A5YKK6 Q9ULM6
A5YKK6 Q92600
A5YKK6 Q9UIV1
A5YKK6 Q9UKZ1
A5YKK6 Q96LI5
A5YKK6 Q9UFF9
Q9ULM6 Q92600
Q9ULM6 Q9UIV1
Q9ULM6 Q9UKZ1
Q9ULM6 Q9UFF9
Q92600 Q9UIV1
Q92600 Q9UKZ1
Q92600 Q96LI5
Q92600 Q9UFF9
Q9UIV1 Q9UKZ1
Q9UIV1 Q96LI5
Q9UKZ1 Q96LI5
Q9UKZ1 Q9UFF9
Q9H2F5 Q9NXR8
Q9H2F5 Q92993
Q9H2F5 Q9UBU8
Q9H2F5 Q15014
Q9H2F5 O95619
Q9H2F5 Q9H0E9
Q9H2F5 Q9NV56
Q9H2F5 Q52LR7
Q9H2F5 Q15906
Q9H2F5 Q9Y230
Q9H2F5 P60709
Q9H2F5 Q9NPF5
Q9H2F5 Q9HAF1
Q9H2F5 Q05BQ5
Q9H2F5 Q9Y265
Q9H2F5 Q96L91
Q9H2F5 Q9Y4A5
Q9H2F5 O96019
Q9NXR8 Q92993
Q9NXR8 Q9UBU8
Q9NXR8 Q15014
Q9NXR8 O95619
Q9NXR8 Q9H0E9
Q9NXR8 Q9NV56
Q9NXR8 Q52LR7
Q9NXR8 Q15906
Q9NXR8 Q9Y230
Q9NXR8 P60709
Q9NXR8 Q9NPF5
Q9NXR8 Q9HAF1
Q9NXR8 Q05BQ5
Q9NXR8 Q9Y265
Q9NXR8 Q96L91
Q9NXR8 Q9Y4A5
Q9NXR8 O96019
Q92993 Q9UBU8
Q92993 Q15014
Q92993 O95619
Q92993 Q9H0E9
Q92993 Q9NV56
Q92993 Q52LR7
Q92993 Q15906
Q92993 Q9Y230
Q92993 P60709
Q92993 Q9NPF5
Q92993 Q9HAF1
Q92993 Q05BQ5
Q92993 Q9Y265
Q92993 Q96L91
Q92993 Q9Y4A5
Q92993 O96019
Q99728 P38398
Q99728 Q9NXR7
Q99728 P46736
Q99728 Q06609
Q99728 P51587
P38398 Q86YC2
P38398 P51587
P38398 Q9NXR7
P38398 P46736
P38398 Q06609
O95251 Q6IE81
O95251 Q9HAF1
O95251 Q9UNL4
O95251 Q9NQC1
O95251 Q92613
O95251 Q8WYH8
Q6IE81 Q9HAF1
Q6IE81 Q9UNL4
Q6IE81 Q8WYH8
Q9HAF1 Q9UNL4
Q9HAF1 Q9NQC1
Q9HAF1 Q92613
Q9HAF1 Q8WYH8
Q9HAF1 P55201
Q9HAF1 Q92794
Q9HAF1 O95696
Q9HAF1 Q9ULD4
Q9HAF1 Q8WYB5
Q9HAF1 Q9UBU8
Q9HAF1 Q15014
Q9HAF1 O95619
Q9HAF1 Q9H0E9
Q9HAF1 Q9NV56
Q9HAF1 Q52LR7
Q9HAF1 Q15906
Q9HAF1 Q9Y230
Q9HAF1 P60709
Q9HAF1 Q9NPF5
Q9HAF1 Q05BQ5
Q9HAF1 Q9Y265
Q9HAF1 Q96L91
Q9HAF1 Q9Y4A5
Q9HAF1 O96019
Q9UNL4 Q9NQC1
Q9UNL4 Q92613
Q9NQC1 Q8WYH8
Q92613 Q8WYH8
Q8WYH8 P55201
Q8WYH8 Q92794
Q8WYH8 O95696
Q8WYH8 Q9ULD4
Q8WYH8 Q8WYB5
Q9UBU9 Q9UKK6
Q9UBU9 Q9NPJ8
Q9UKK6 Q9GZY0
Q9UKK6 Q9H1B4
Q9UKK6 Q9H4D5
P55201 Q92794
P55201 Q8WYB5
Q92794 O95696
Q92794 Q9ULD4
O95696 Q8WYB5
Q9ULD4 Q8WYB5
O75792 Q5TBB1
O75792 Q8TDP1
Q5TBB1 Q8TDP1
Q9UIG0 O75533
Q9UIG0 Q9BQG0
Q9UIG0 O00159
Q9UIG0 Q03468
Q9UIG0 Q9NR30
Q9UIG0 P35659
Q5VZM2 Q9NQL2
Q5VZM2 Q9HB90
Q9NQL2 Q7L523
Q9NRG0 Q9NRF9
Q9NRF9 Q9NR33
Q9NRF9 Q07864
Q9NRF9 P56282
Q9Y248 Q14691
Q9Y248 Q9BRX5
Q9Y248 Q9BRT9
Q14691 Q9BRX5
Q14691 Q9BRT9
Q9BRX5 Q9BRT9
Q9Y490 P18206
P49916 Q9NUW8
P49916 Q8IW19
P49916 P18887
P49916 P06746
P49916 Q96T60
P49916 Q7Z2E3
Q9NUW8 Q8IW19
Q9NUW8 P18887
Q9NUW8 P06746
Q9NUW8 Q96T60
Q9NUW8 Q7Z2E3
Q8IW19 P18887
Q8IW19 P06746
Q8IW19 Q96T60
Q8IW19 Q7Z2E3
P18887 P06746
P18887 Q96T60
P18887 Q7Z2E3
P06746 Q96T60
P06746 Q7Z2E3
Q96T60 Q7Z2E3
Q7Z3B3 P51610
Q7Z3B3 O15294
Q7Z3B3 Q9H7Z6
Q7Z3B3 P61964
Q7Z3B3 Q9P2N6
Q7Z3B3 Q9H9L4
Q7Z3B3 Q96EZ8
Q7Z3B3 Q9BVI0
P51610 O15294
P51610 Q9H7Z6
P51610 P61964
P51610 Q9P2N6
P51610 Q9H9L4
P51610 Q96EZ8
P51610 Q9BVI0
P51610 Q9C005
P51610 Q9Y5Z7
P51610 Q15291
P51610 Q9UBL3
P51610 Q03164
P51610 Q9UMN6
P51610 Q9P0U4
P51610 O15047
P51610 Q6UXN9
P51610 Q96IK1
P51610 Q8NFC6
P51610 Q9UPS6
O15294 Q9H7Z6
O15294 P61964
O15294 Q9P2N6
O15294 Q9H9L4
O15294 Q96EZ8
O15294 Q9BVI0
O15294 Q4LE39
O15294 Q92769
O15294 Q5PSV4
O15294 Q9HCU9
O15294 Q8NFU7
O15294 Q9H7L9
O15294 Q9NP50
O15294 Q9H160
O15294 Q9H0E3
O15294 Q9HAJ7
O15294 Q9UK53
O15294 O75446
O15294 P29374
O15294 Q13547
O15294 Q96ST3
Q9H7Z6 P61964
Q9H7Z6 Q9P2N6
Q9H7Z6 Q9H9L4
Q9H7Z6 Q96EZ8
Q9H7Z6 Q9BVI0
Q9H7Z6 Q9HCI7
Q9H7Z6 Q8N5Y2
Q9H7Z6 Q68DK7
P61964 Q9P2N6
P61964 Q9H9L4
P61964 Q96EZ8
P61964 Q9BVI0
P61964 Q96ES7
P61964 O75478
P61964 O75528
P61964 Q8IYH5
P61964 Q9ULM3
P61964 Q9H8E8
P61964 Q92830
P61964 Q9NS73
P61964 Q92831
P61964 Q9C005
P61964 Q9Y5Z7
P61964 Q15291
P61964 Q9UBL3
P61964 Q03164
P61964 Q9UMN6
P61964 Q6ZW49
P61964 Q8NEZ4
P61964 Q14686
P61964 O15550
P61964 Q9BTK6
P61964 O14686
P61964 Q9P0U4
P61964 O15047
P61964 Q6UXN9
P61964 Q96IK1
P61964 Q8NFC6
P61964 Q9UPS6
Q9P2N6 Q9H9L4
Q9P2N6 Q96EZ8
Q9P2N6 Q9BVI0
Q9H9L4 Q96EZ8
Q9H9L4 Q9BVI0
Q96EZ8 Q9BVI0
Q96EZ8 Q9C086
Q96EZ8 P0C1Z6
Q96EZ8 Q6PI98
Q96EZ8 Q6P4R8
Q96EZ8 Q9Y5K5
Q96EZ8 Q9H981
Q96EZ8 Q9H9F9
Q96EZ8 Q8NBZ0
Q96EZ8 Q9Y265
Q96EZ8 Q53TQ3
Q96EZ8 Q9Y230
Q96EZ8 O96019
Q96EZ8 Q9ULG1
Q96EZ8 P25490
Q9HCI7 Q8N5Y2
Q9HCI7 Q68DK7
Q8N5Y2 Q68DK7
Q86YC2 P51587
P51587 Q9NXR7
P51587 P46736
P51587 Q06609
Q9C086 P0C1Z6
Q9C086 Q6PI98
Q9C086 Q6P4R8
Q9C086 Q9Y5K5
Q9C086 Q9H981
Q9C086 Q9H9F9
Q9C086 Q8NBZ0
Q9C086 Q9Y265
Q9C086 Q53TQ3
Q9C086 Q9Y230
Q9C086 O96019
Q9C086 Q9ULG1
Q9C086 P25490
P0C1Z6 Q6PI98
P0C1Z6 Q6P4R8
P0C1Z6 Q9Y5K5
P0C1Z6 Q9H981
P0C1Z6 Q9H9F9
P0C1Z6 Q8NBZ0
P0C1Z6 Q9Y265
P0C1Z6 Q53TQ3
P0C1Z6 Q9Y230
P0C1Z6 O96019
P0C1Z6 Q9ULG1
P0C1Z6 P25490
Q6PI98 Q6P4R8
Q6PI98 Q9Y5K5
Q6PI98 Q9H981
Q6PI98 Q9H9F9
Q6PI98 Q8NBZ0
Q6PI98 Q9Y265
Q6PI98 Q53TQ3
Q6PI98 Q9Y230
Q6PI98 O96019
Q6PI98 Q9ULG1
Q6PI98 P25490
Q6P4R8 Q9Y5K5
Q6P4R8 Q9H981
Q6P4R8 Q9H9F9
Q6P4R8 Q8NBZ0
Q6P4R8 Q9Y265
Q6P4R8 Q53TQ3
Q6P4R8 Q9Y230
Q6P4R8 O96019
Q6P4R8 Q9ULG1
Q6P4R8 P25490
Q9Y5K5 Q9H981
Q9Y5K5 Q9H9F9
Q9Y5K5 Q8NBZ0
Q9Y5K5 Q9Y265
Q9Y5K5 Q53TQ3
Q9Y5K5 Q9Y230
Q9Y5K5 O96019
Q9Y5K5 Q9ULG1
Q9Y5K5 P25490
Q9H981 Q9H9F9
Q9H981 Q8NBZ0
Q9H981 Q9Y265
Q9H981 Q53TQ3
Q9H981 Q9Y230
Q9H981 O96019
Q9H981 Q9ULG1
Q9H981 P25490
Q9H9F9 Q8NBZ0
Q9H9F9 Q9Y265
Q9H9F9 Q53TQ3
Q9H9F9 Q9Y230
Q9H9F9 O96019
Q9H9F9 Q9ULG1
Q9H9F9 P25490
Q8NBZ0 Q9Y265
Q8NBZ0 Q53TQ3
Q8NBZ0 Q9Y230
Q8NBZ0 O96019
Q8NBZ0 Q9ULG1
Q8NBZ0 P25490
Q9Y265 Q53TQ3
Q9Y265 Q9Y230
Q9Y265 O96019
Q9Y265 Q9ULG1
Q9Y265 P25490
Q9Y265 O43257
Q9Y265 Q9NPF5
Q9Y265 O95619
Q9Y265 Q6ZRS2
Q9Y265 Q9GZN1
Q9Y265 Q15906
Q9Y265 Q9UBU8
Q9Y265 Q15014
Q9Y265 Q9H0E9
Q9Y265 Q9NV56
Q9Y265 Q52LR7
Q9Y265 P60709
Q9Y265 Q05BQ5
Q9Y265 Q96L91
Q9Y265 Q9Y4A5
Q9Y265 Q9NWS0
Q9Y265 Q9H6T3
Q9Y265 Q07617
Q9Y265 Q8WWB5
Q9Y265 Q9NVR5
Q53TQ3 Q9Y230
Q53TQ3 O96019
Q53TQ3 Q9ULG1
Q53TQ3 P25490
Q9Y230 O96019
Q9Y230 Q9ULG1
Q9Y230 P25490
Q9Y230 O43257
Q9Y230 Q9NPF5
Q9Y230 O95619
Q9Y230 Q6ZRS2
Q9Y230 Q9GZN1
Q9Y230 Q15906
Q9Y230 Q9UBU8
Q9Y230 Q15014
Q9Y230 Q9H0E9
Q9Y230 Q9NV56
Q9Y230 Q52LR7
Q9Y230 P60709
Q9Y230 Q05BQ5
Q9Y230 Q96L91
Q9Y230 Q9Y4A5
Q9Y230 Q9NWS0
Q9Y230 Q9H6T3
Q9Y230 Q07617
Q9Y230 Q8WWB5
Q9Y230 Q9NVR5
O96019 Q9ULG1
O96019 P25490
O96019 O43257
O96019 Q9NPF5
O96019 O95619
O96019 Q6ZRS2
O96019 Q9GZN1
O96019 Q15906
O96019 Q9UBU8
O96019 Q15014
O96019 Q9H0E9
O96019 Q9NV56
O96019 Q52LR7
O96019 P60709
O96019 Q05BQ5
O96019 Q96L91
O96019 Q9Y4A5
O96019 Q8TAQ2
O96019 O14497
O96019 Q969G3
O96019 Q92922
O96019 P51531
O96019 Q92925
O96019 Q6STE5
O96019 Q96GM5
O96019 Q12824
O96019 Q92784
O96019 Q8WUZ0
O96019 Q8WUB8
O96019 Q92785
O96019 Q4VC05
O96019 Q9BQE9
O96019 P51532
O96019 Q86U86
O96019 Q68CP9
O96019 Q9NPI1
O96019 Q8NFD5
O96019 Q15532
O96019 Q9H8M2
O96019 Q9NZM4
O96019 Q6AI39
Q9ULG1 P25490
Q14627 P35225
Q14627 Q86XT9
Q14627 P36222
P35225 Q86XT9
P35225 P36222
P35225 P24394
P35225 P78552
Q86XT9 P36222
P57081 Q9UBP6
Q09666 P60903
P60903 Q14527
Q07817 Q16611
Q07817 Q92934
Q07817 Q9BXH1
Q07817 P55957
Q08379 Q9BQQ3
Q8IVV7 P62699
Q8IVV7 Q8IUR7
Q8IVV7 Q9H7D7
Q8IVV7 Q9UL63
Q8IVV7 Q9H871
Q8IVV7 Q7L5Y9
Q8IVV7 Q9NWU2
Q8IVV7 Q96S59
Q8IVV7 Q96G75
Q8IVV7 Q6VN20
P62699 Q8IUR7
P62699 Q9H7D7
P62699 Q9UL63
P62699 Q9H871
P62699 Q7L5Y9
P62699 Q9NWU2
P62699 Q96S59
P62699 Q96G75
P62699 Q6VN20
Q8IUR7 Q9H7D7
Q8IUR7 Q9UL63
Q8IUR7 Q9H871
Q8IUR7 Q7L5Y9
Q8IUR7 Q9NWU2
Q8IUR7 Q96S59
Q8IUR7 Q96G75
Q8IUR7 Q6VN20
Q9H7D7 Q9UL63
Q9H7D7 Q9H871
Q9H7D7 Q7L5Y9
Q9H7D7 Q9NWU2
Q9H7D7 Q96S59
Q9H7D7 Q96G75
Q9H7D7 Q6VN20
Q9UL63 Q9H871
Q9UL63 Q7L5Y9
Q9UL63 Q9NWU2
Q9UL63 Q96S59
Q9UL63 Q96G75
Q9UL63 Q6VN20
Q9H871 Q7L5Y9
Q9H871 Q9NWU2
Q9H871 Q96S59
Q9H871 Q6VN20
Q7L5Y9 Q9NWU2
Q7L5Y9 Q96S59
Q7L5Y9 Q96G75
Q7L5Y9 Q6VN20
Q9NWU2 Q96S59
Q9NWU2 Q96G75
Q9NWU2 Q6VN20
Q96S59 Q96G75
Q14839 Q92769
Q14839 Q12873
Q14839 O94776
Q14839 Q13330
Q14839 Q86YP4
Q14839 Q9BTC8
Q14839 Q9UBB5
Q14839 Q13547
Q14839 Q8WXI9
Q14839 O95983
Q92769 Q12873
Q92769 O94776
Q92769 Q13330
Q92769 Q86YP4
Q92769 Q9BTC8
Q92769 Q9UBB5
Q92769 Q13547
Q92769 Q8WXI9
Q92769 O95983
Q92769 Q4LE39
Q92769 Q9HCU9
Q92769 Q5PSV4
Q92769 Q9H7L9
Q92769 Q9H160
Q92769 Q9H0E3
Q92769 Q9HAJ7
Q92769 Q9UK53
Q92769 O75446
Q92769 P29374
Q92769 Q96ST3
Q92769 Q8NFU7
Q92769 Q9NP50
Q92769 O75182
Q92769 Q9UKL0
Q92769 O60341
Q92769 Q8IZ40
Q92769 Q9P2K3
Q92769 Q8N108
Q92769 Q8N344
Q92769 Q9H147
Q92769 Q6PJG2
Q12873 O94776
Q12873 Q13330
Q12873 Q86YP4
Q12873 Q9BTC8
Q12873 Q9UBB5
Q12873 Q13547
Q12873 Q8WXI9
Q12873 O95983
O94776 Q13330
O94776 Q86YP4
O94776 Q9BTC8
O94776 Q9UBB5
O94776 Q13547
O94776 Q8WXI9
O94776 O95983
Q13330 Q86YP4
Q13330 Q9BTC8
Q13330 Q9UBB5
Q13330 Q13547
Q13330 Q8WXI9
Q13330 O95983
Q86YP4 Q9BTC8
Q86YP4 Q9UBB5
Q86YP4 Q13547
Q86YP4 Q8WXI9
Q86YP4 O95983
Q9BTC8 Q9UBB5
Q9BTC8 Q13547
Q9BTC8 Q8WXI9
Q9BTC8 O95983
Q9UBB5 Q13547
Q9UBB5 Q8WXI9
Q13547 Q8WXI9
Q13547 O95983
Q13547 Q4LE39
Q13547 Q9HCU9
Q13547 Q5PSV4
Q13547 Q9H7L9
Q13547 Q9H160
Q13547 Q9H0E3
Q13547 Q9HAJ7
Q13547 Q9UK53
Q13547 O75446
Q13547 P29374
Q13547 Q96ST3
Q13547 Q8NFU7
Q13547 Q9NP50
Q13547 O75182
Q13547 Q9UKL0
Q13547 O60341
Q13547 Q8IZ40
Q13547 Q9P2K3
Q13547 Q8N344
Q13547 Q8N108
Q13547 Q9H147
Q13547 Q6PJG2
Q8WXI9 O95983
Q96CB9 Q7Z6M4
P13647 P02533
Q15233 Q8WXF1
Q15233 P23246
Q8WXF1 P23246
Q15631 Q99598
P63272 O00267
Q9Y2C9 O60603
Q9Y2C9 O00206
O60603 Q15399
O60603 Q9BXR5
Q15399 Q9BXR5
P51787 P15382
Q14CW9 O00268
Q14CW9 Q15545
Q14CW9 O75486
Q14CW9 Q9UPT9
Q14CW9 Q16594
Q14CW9 O15265
Q14CW9 Q15542
Q14CW9 Q16514
Q14CW9 O75528
Q14CW9 Q9NPA8
Q14CW9 Q9Y4A5
Q14CW9 Q6P1X5
Q14CW9 P49848
Q14CW9 O75529
Q14CW9 Q92830
Q14CW9 Q12962
Q14CW9 O94864
Q14CW9 Q96ES7
Q14CW9 Q9Y6J9
Q14CW9 Q86TJ2
Q14CW9 Q15393
Q14CW9 Q9BWJ5
Q14CW9 Q96BN2
Q14CW9 Q8NEM7
Q14CW9 Q92831
O00268 Q15545
O00268 O75486
O00268 Q9UPT9
O00268 Q16594
O00268 O15265
O00268 Q15542
O00268 Q16514
O00268 O75528
O00268 Q9NPA8
O00268 Q9Y4A5
O00268 Q6P1X5
O00268 P49848
O00268 O75529
O00268 Q92830
O00268 Q12962
O00268 Q15544
O00268 P20226
O00268 P21675
O00268 Q5VWG9
O00268 Q15543
O00268 Q7Z7C8
Q15545 O75486
Q15545 Q9UPT9
Q15545 Q16594
Q15545 O15265
Q15545 Q15542
Q15545 Q16514
Q15545 O75528
Q15545 Q9NPA8
Q15545 Q9Y4A5
Q15545 Q6P1X5
Q15545 P49848
Q15545 O75529
Q15545 Q92830
Q15545 Q12962
Q15545 Q15544
Q15545 P20226
Q15545 P21675
Q15545 Q5VWG9
Q15545 Q15543
Q15545 Q7Z7C8
Q15545 Q92750
O75486 Q9UPT9
O75486 Q16594
O75486 O15265
O75486 Q15542
O75486 Q16514
O75486 O75528
O75486 Q9NPA8
O75486 Q9Y4A5
O75486 Q6P1X5
O75486 P49848
O75486 O75529
O75486 Q92830
O75486 Q12962
O75486 O75478
O75486 Q92831
O75486 Q9Y6J9
O75486 O94864
O75486 Q96ES7
O75486 Q86TJ2
O75486 Q15393
O75486 Q9BWJ5
O75486 Q96BN2
O75486 Q8NEM7
Q9UPT9 Q16594
Q9UPT9 O15265
Q9UPT9 Q15542
Q9UPT9 Q16514
Q9UPT9 O75528
Q9UPT9 Q9NPA8
Q9UPT9 Q9Y4A5
Q9UPT9 Q6P1X5
Q9UPT9 P49848
Q9UPT9 O75529
Q9UPT9 Q92830
Q9UPT9 Q12962
Q9UPT9 O94864
Q9UPT9 Q96ES7
Q9UPT9 Q9Y6J9
Q9UPT9 Q86TJ2
Q9UPT9 Q15393
Q9UPT9 Q9BWJ5
Q9UPT9 Q96BN2
Q9UPT9 Q8NEM7
Q9UPT9 Q92831
Q16594 O15265
Q16594 Q15542
Q16594 Q16514
Q16594 O75528
Q16594 Q9NPA8
Q16594 Q9Y4A5
Q16594 Q6P1X5
Q16594 P49848
Q16594 O75529
Q16594 Q92830
Q16594 Q12962
Q16594 Q15544
Q16594 P20226
Q16594 P21675
Q16594 Q5VWG9
Q16594 Q15543
Q16594 Q7Z7C8
Q16594 Q92750
Q16594 O75478
Q16594 Q92831
Q16594 Q9Y6J9
Q16594 O94864
Q16594 Q96ES7
Q16594 Q86TJ2
Q16594 Q15393
Q16594 Q9BWJ5
Q16594 Q96BN2
Q16594 Q8NEM7
O15265 Q15542
O15265 Q16514
O15265 O75528
O15265 Q9NPA8
O15265 Q9Y4A5
O15265 Q6P1X5
O15265 P49848
O15265 O75529
O15265 Q92830
O15265 Q12962
O15265 O94864
O15265 Q96ES7
O15265 Q9Y6J9
O15265 Q86TJ2
O15265 Q15393
O15265 Q9BWJ5
O15265 Q96BN2
O15265 Q8NEM7
O15265 Q92831
Q15542 Q16514
Q15542 O75528
Q15542 Q9NPA8
Q15542 Q9Y4A5
Q15542 Q6P1X5
Q15542 P49848
Q15542 O75529
Q15542 Q92830
Q15542 Q12962
Q15542 Q15544
Q15542 P20226
Q15542 P21675
Q15542 Q5VWG9
Q15542 Q15543
Q15542 Q7Z7C8
Q15542 Q92750
Q16514 O75528
Q16514 Q9NPA8
Q16514 Q9Y4A5
Q16514 Q6P1X5
Q16514 P49848
Q16514 O75529
Q16514 Q92830
Q16514 Q12962
Q16514 Q15544
Q16514 P20226
Q16514 P21675
Q16514 Q5VWG9
Q16514 Q15543
Q16514 Q7Z7C8
Q16514 Q92750
Q16514 O75478
Q16514 Q92831
Q16514 Q9Y6J9
Q16514 O94864
Q16514 Q96ES7
Q16514 Q86TJ2
Q16514 Q15393
Q16514 Q9BWJ5
Q16514 Q96BN2
Q16514 Q8NEM7
O75528 Q9NPA8
O75528 Q9Y4A5
O75528 Q6P1X5
O75528 P49848
O75528 O75529
O75528 Q92830
O75528 Q12962
O75528 O75478
O75528 Q92831
O75528 Q9Y6J9
O75528 Q96ES7
O75528 Q8IYH5
O75528 Q9ULM3
O75528 Q9H8E8
O75528 Q9NS73
O75528 O94864
O75528 Q86TJ2
O75528 Q15393
O75528 Q9BWJ5
O75528 Q96BN2
O75528 Q8NEM7
Q9NPA8 Q9Y4A5
Q9NPA8 Q6P1X5
Q9NPA8 P49848
Q9NPA8 O75529
Q9NPA8 Q92830
Q9NPA8 Q12962
Q9NPA8 O94864
Q9NPA8 Q96ES7
Q9NPA8 Q9Y6J9
Q9NPA8 Q86TJ2
Q9NPA8 Q15393
Q9NPA8 Q9BWJ5
Q9NPA8 Q96BN2
Q9NPA8 Q8NEM7
Q9NPA8 Q92831
Q9NPA8 Q5JVF3
Q9NPA8 P60896
Q9NPA8 O60318
Q9NPA8 O15182
Q9NPA8 P41208
Q9Y4A5 Q6P1X5
Q9Y4A5 P49848
Q9Y4A5 O75529
Q9Y4A5 Q92830
Q9Y4A5 Q12962
Q9Y4A5 Q9UBU8
Q9Y4A5 Q15014
Q9Y4A5 O95619
Q9Y4A5 Q9H0E9
Q9Y4A5 Q9NV56
Q9Y4A5 Q52LR7
Q9Y4A5 Q15906
Q9Y4A5 P60709
Q9Y4A5 Q9NPF5
Q9Y4A5 Q05BQ5
Q9Y4A5 Q96L91
Q9Y4A5 O75478
Q9Y4A5 Q92831
Q9Y4A5 Q9Y6J9
Q9Y4A5 O94864
Q9Y4A5 Q96ES7
Q9Y4A5 Q86TJ2
Q9Y4A5 Q15393
Q9Y4A5 Q9BWJ5
Q9Y4A5 Q96BN2
Q9Y4A5 Q8NEM7
Q6P1X5 P49848
Q6P1X5 O75529
Q6P1X5 Q92830
Q6P1X5 Q12962
Q6P1X5 Q15544
Q6P1X5 P20226
Q6P1X5 P21675
Q6P1X5 Q5VWG9
Q6P1X5 Q15543
Q6P1X5 Q7Z7C8
Q6P1X5 Q92750
P49848 O75529
P49848 Q92830
P49848 Q12962
P49848 Q15544
P49848 P20226
P49848 P21675
P49848 Q5VWG9
P49848 Q15543
P49848 Q7Z7C8
P49848 Q92750
O75529 Q92830
O75529 Q12962
O75529 O75478
O75529 Q92831
O75529 Q9Y6J9
O75529 O94864
O75529 Q96ES7
O75529 Q86TJ2
O75529 Q15393
O75529 Q9BWJ5
O75529 Q96BN2
O75529 Q8NEM7
Q92830 Q12962
Q92830 Q96ES7
Q92830 O75478
Q92830 Q8IYH5
Q92830 Q9ULM3
Q92830 Q9H8E8
Q92830 Q9NS73
Q92830 O94864
Q92830 Q9Y6J9
Q92830 Q86TJ2
Q92830 Q15393
Q92830 Q9BWJ5
Q92830 Q96BN2
Q92830 Q8NEM7
Q12962 Q15544
Q12962 P20226
Q12962 P21675
Q12962 Q5VWG9
Q12962 Q15543
Q12962 Q7Z7C8
Q12962 Q92750
Q12962 O75478
Q12962 Q92831
Q12962 Q9Y6J9
Q12962 O94864
Q12962 Q96ES7
Q12962 Q86TJ2
Q12962 Q15393
Q12962 Q9BWJ5
Q12962 Q96BN2
Q12962 Q8NEM7
Q8N2Q7 P58400
P67870 P68400
P67870 P19784
P68400 P19784
Q15544 P20226
Q15544 P21675
Q15544 Q5VWG9
Q15544 Q15543
Q15544 Q7Z7C8
Q15544 Q92750
P20226 P21675
P20226 Q5VWG9
P20226 Q15543
P20226 Q7Z7C8
P20226 Q92750
P20226 Q9H5J8
P20226 Q53T94
P20226 Q15572
P20226 Q15573
P20226 A6H8Y1
P20226 Q92994
P20226 Q9HAW0
P20226 Q00403
P21675 Q5VWG9
P21675 Q15543
P21675 Q7Z7C8
P21675 Q92750
Q5VWG9 Q15543
Q5VWG9 Q7Z7C8
Q5VWG9 Q92750
Q15543 Q7Z7C8
Q15543 Q92750
Q7Z7C8 Q92750
Q9GZY0 Q9NPJ8
Q02108 Q02153
Q02153 P33402
P00451 0000002969
P00451 0000002971
P00451 0000002968
0000002969 0000002971
0000002971 0000002968
Q06330 Q92585
Q06330 P46531
Q92585 P46531
Q16630 O43809
O43809 Q8N684
P01308 0000015819
P01308 0000015821
0000015819 0000015821
Q9Y6K1 Q9UJW3
Q9UJW3 Q9UBC3
O00206 Q9Y6Y9
Q9NZL9 P31153
Q92506 Q8N4T8
P29466 0000004524
P29466 0000004522
P29466 Q9ULZ3
P29466 Q9C000
P29466 Q96P20
P29466 O14862
P29466 O15553
P29466 Q13075
P29466 Q9NPP4
0000004524 0000004522
Q9NXR7 P46736
Q9NXR7 Q06609
Q9NXR7 Q96RL1
Q9NXR7 Q9NWV8
Q9NXR7 Q6UWZ7
Q9NXR7 Q15018
Q9NXR7 P34897
P46736 Q06609
P46736 Q96RL1
P46736 Q9NWV8
P46736 Q6UWZ7
P46736 Q15018
P46736 P34897
0000004545 0000004542
0000004545 P42575
0000004542 P42575
P42575 Q9HB75
P42575 P78560
0000004572 0000004571
0000004572 P42574
0000004571 P42574
0000004609 0000004611
0000004609 P55212
0000004611 P55212
0000005908 0000005911
0000005908 P01024
0000005908 0000005909
0000005908 P00751
0000005908 0000027547
0000005911 P01024
P01024 0000005909
P01024 P00751
P01024 0000027547
O43257 Q9NPF5
O43257 O95619
O43257 Q6ZRS2
O43257 Q9GZN1
O43257 Q15906
Q9NPF5 O95619
Q9NPF5 Q6ZRS2
Q9NPF5 Q9GZN1
Q9NPF5 Q15906
Q9NPF5 Q9UBU8
Q9NPF5 Q15014
Q9NPF5 Q9H0E9
Q9NPF5 Q9NV56
Q9NPF5 Q52LR7
Q9NPF5 P60709
Q9NPF5 Q05BQ5
Q9NPF5 Q96L91
O95619 Q6ZRS2
O95619 Q9GZN1
O95619 Q15906
O95619 Q9UBU8
O95619 Q15014
O95619 Q9H0E9
O95619 Q9NV56
O95619 Q52LR7
O95619 P60709
O95619 Q05BQ5
O95619 Q96L91
Q6ZRS2 Q9GZN1
Q6ZRS2 Q15906
Q9GZN1 Q15906
Q15906 Q9UBU8
Q15906 Q15014
Q15906 Q9H0E9
Q15906 Q9NV56
Q15906 Q52LR7
Q15906 P60709
Q15906 Q05BQ5
Q15906 Q96L91
0000004629 Q14790
0000004629 0000004631
Q14790 0000004631
Q14790 Q13158
Q14790 Q13546
Q9UBU8 Q15014
Q9UBU8 Q9H0E9
Q9UBU8 Q9NV56
Q9UBU8 Q52LR7
Q9UBU8 P60709
Q9UBU8 Q05BQ5
Q9UBU8 Q96L91
Q15014 Q9H0E9
Q15014 Q9NV56
Q15014 Q52LR7
Q15014 P60709
Q15014 Q05BQ5
Q15014 Q96L91
Q9H0E9 Q9NV56
Q9H0E9 Q52LR7
Q9H0E9 P60709
Q9H0E9 Q05BQ5
Q9H0E9 Q96L91
Q9NV56 Q52LR7
Q9NV56 P60709
Q9NV56 Q05BQ5
Q9NV56 Q96L91
Q52LR7 P60709
Q52LR7 Q05BQ5
Q52LR7 Q96L91
P60709 Q05BQ5
P60709 Q96L91
P60709 Q8TAQ2
P60709 O14497
P60709 Q969G3
P60709 Q92922
P60709 P51531
P60709 Q92925
P60709 Q6STE5
P60709 Q96GM5
P60709 Q12824
P60709 Q92784
P60709 Q8WUZ0
P60709 Q8WUB8
P60709 Q92785
P60709 Q4VC05
P60709 Q9BQE9
P60709 P51532
P60709 Q86U86
P60709 Q68CP9
P60709 Q9NPI1
P60709 O94805
P60709 Q92782
P60709 Q8NFD5
P60709 Q15532
P60709 Q9H8M2
P60709 Q9NZM4
P60709 Q6AI39
P60709 O75935
P60709 O00399
P60709 P61163
P60709 Q9UJW0
P60709 Q9NZ32
P60709 Q13561
P60709 Q9BTE1
P60709 Q14203
P60709 Q9BSJ2
P60709 Q96RT8
P60709 Q6P582
P60709 Q9UGJ1
P60709 Q08AG7
P60709 Q6NZ67
P60709 Q96CW5
P60709 P23258
P60709 Q96RT7
Q05BQ5 Q96L91
Q9NTJ3 Q9BPX3
Q9NTJ3 Q15021
Q9NTJ3 Q15003
Q9NTJ3 O95347
Q9NTJ3 Q6IBW4
Q9NTJ3 P42695
Q9NTJ3 Q86XI2
Q9BPX3 Q15021
Q9BPX3 Q15003
Q9BPX3 O95347
Q15021 Q15003
Q15021 O95347
Q15003 O95347
O95347 Q6IBW4
O95347 P42695
O95347 Q86XI2
O00522 O14713
O00522 Q9BUL8
O00522 Q9BSQ5
Q9BUL8 Q9BSQ5
Q6IBW4 P42695
Q6IBW4 Q86XI2
P42695 Q86XI2
O75478 Q92831
O75478 Q9Y6J9
O75478 Q96ES7
O75478 Q8IYH5
O75478 Q9ULM3
O75478 Q9H8E8
O75478 Q9NS73
Q92831 Q9Y6J9
Q92831 Q96ES7
Q92831 Q8IYH5
Q92831 Q9ULM3
Q92831 Q9H8E8
Q92831 Q9NS73
Q92831 O94864
Q92831 Q86TJ2
Q92831 Q15393
Q92831 Q9BWJ5
Q92831 Q96BN2
Q92831 Q8NEM7
Q9Y6J9 O94864
Q9Y6J9 Q96ES7
Q9Y6J9 Q86TJ2
Q9Y6J9 Q15393
Q9Y6J9 Q9BWJ5
Q9Y6J9 Q96BN2
Q9Y6J9 Q8NEM7
0000004643 P55211
0000004643 O14727
0000004643 P99999
P55211 O14727
P55211 P99999
Q9UI95 Q15054
Q9UI95 O60673
Q9UI95 P49005
Q9UI95 Q8IYI0
Q9UI95 Q86V20
Q9UI95 Q6ZNX1
Q15054 O60673
Q15054 P49005
Q15054 P28340
Q15054 Q9HCU8
O60673 P49005
P49005 P28340
P49005 Q9HCU8
Q96ES7 Q8IYH5
Q96ES7 Q9ULM3
Q96ES7 Q9H8E8
Q96ES7 Q9NS73
Q96ES7 O94864
Q96ES7 Q86TJ2
Q96ES7 Q15393
Q96ES7 Q9BWJ5
Q96ES7 Q96BN2
Q96ES7 Q8NEM7
Q8IYH5 Q9ULM3
Q8IYH5 Q9H8E8
Q8IYH5 Q9NS73
Q9ULM3 Q9H8E8
Q9ULM3 Q9NS73
Q9H8E8 Q9NS73
P16298 Q96LZ3
P48454 Q96LZ3
P19878 P63000
P19878 Q15080
P19878 P04839
P19878 P13498
P19878 P14598
P19878 P15153
P19878 P60763
P63000 Q15080
P63000 P04839
P63000 P13498
P63000 P14598
Q15080 P04839
Q15080 P13498
Q15080 P14598
Q15080 P15153
Q15080 P60763
P04839 P13498
P04839 P14598
P04839 P15153
P04839 P60763
P13498 P14598
P13498 P15153
P13498 P60763
P14598 P15153
P14598 P60763
P52292 Q14974
Q14974 O95149
Q14974 P52294
Q14974 O00505
Q14974 O00629
Q14974 O15131
Q14974 O60684
Q14974 A9QM74
0000000092 P05067
0000000092 0000000093
P05067 0000000093
Q15637 P26368
P26368 Q01081
O75534 O60506
O75534 P11940
O75534 Q9H074
O75534 Q14103
O60506 P11940
O60506 Q9H074
O60506 Q14103
O60506 Q00839
O60506 Q9NZI8
O60506 P67809
O60506 Q08211
O60506 Q99729
O60506 Q9NQ94
O60506 P41238
O60506 P40429
O60506 P07814
O60506 P04406
P11940 Q9H074
P11940 Q14103
Q9H074 Q14103
Q00839 Q9NZI8
Q00839 P67809
Q00839 Q08211
Q9NZI8 P67809
Q9NZI8 Q08211
P67809 Q08211
Q99729 Q9NQ94
Q99729 P41238
Q9NQ94 P41238
O75533 Q9BQG0
O75533 O00159
O75533 Q03468
O75533 Q9NR30
O75533 P35659
O75533 P08579
O75533 Q15427
O75533 Q13435
O75533 M14387
O75533 Q15428
O75533 P14678
O75533 P62314
O75533 P62318
O75533 P62304
O75533 P62306
O75533 P09234
O75533 139356
O75533 P09012
O75533 P62308
O75533 Q15393
O75533 Q9BWJ5
O75533 P08621
O75533 URS00006A1489
O75533 Q15459
O75533 P09661
O75533 P62316
O75533 Q7RTV0
O75533 Q9Y3B4
O75533 Q12874
O75533 O94906
O75533 URS0000715A86
O75533 Q8WWY3
O75533 Q53GS9
O75533 P62310
O75533 Q9BTD8
O75533 URS0000631BD4
O75533 O43395
O75533 O75643
O75533 Q15029
O75533 URS00006767A8
O75533 Q6P2Q9
O75533 Q9Y4Z0
O75533 Q9BUQ8
O75533 Q8WVK2
O75533 Q9Y333
O75533 P83876
O75533 Q9UK45
O75533 O43290
O75533 P62312
O75533 Q96DI7
O75533 P55769
O75533 Q9Y4Y9
O75533 O43172
O75533 O95777
O75533 Q9P013
O75533 Q8IYB3
O75533 Q9UNP9
O75533 O43660
O75533 Q9HCS7
O75533 P41223
O75533 Q13573
O75533 Q9NW64
O75533 URS000075BAAE
O75533 Q13356
O75533 O60306
O75533 Q9BZJ0
O75533 Q99459
O75533 O60870
O75533 Q9HCG8
O75533 Q6UX04
O75533 Q9UQ35
O75533 O15541
O75533 Q8WUA2
O75533 Q9Y3C6
O75533 O60231
O75533 O75934
O75533 O60508
O75533 Q9UMS4
O75533 O95926
O75533 Q7L014
O75533 O43719
Q9BQG0 O00159
Q9BQG0 Q03468
Q9BQG0 Q9NR30
Q9BQG0 P35659
O00159 Q03468
O00159 Q9NR30
O00159 P35659
Q03468 Q9NR30
Q03468 P35659
Q9NR30 P35659
O43524 P63104
Q6UVJ0 Q15468
Q6UVJ0 Q9HC77
Q15468 Q9HC77
O00444 Q8TEP8
O00444 O94986
A8K0Z3 Q12768
A8K0Z3 Q9Y4E1
A8K0Z3 Q9Y3C0
A8K0Z3 Q2M389
A8K0Z3 Q641Q2
Q12768 Q9Y4E1
Q12768 Q9Y3C0
Q12768 Q2M389
Q12768 Q6VEQ5
Q12768 C4AMC7
Q12768 A8MWX3
Q12768 Q9NQA3
Q12768 Q641Q2
Q9Y4E1 Q9Y3C0
Q9Y4E1 Q2M389
Q9Y4E1 Q6VEQ5
Q9Y4E1 C4AMC7
Q9Y4E1 A8MWX3
Q9Y4E1 Q9NQA3
Q9Y3C0 Q2M389
Q9Y3C0 Q6VEQ5
Q9Y3C0 C4AMC7
Q9Y3C0 A8MWX3
Q9Y3C0 Q9NQA3
Q9Y3C0 Q641Q2
Q2M389 Q6VEQ5
Q2M389 C4AMC7
Q2M389 A8MWX3
Q2M389 Q9NQA3
Q2M389 Q641Q2
Q8TAQ2 O14497
Q8TAQ2 Q969G3
Q8TAQ2 Q92922
Q8TAQ2 P51531
Q8TAQ2 Q92925
Q8TAQ2 Q6STE5
Q8TAQ2 Q96GM5
Q8TAQ2 Q12824
Q8TAQ2 Q92784
Q8TAQ2 Q8WUB8
Q8TAQ2 Q86U86
Q8TAQ2 Q68CP9
Q8TAQ2 Q9NPI1
Q8TAQ2 O94805
Q8TAQ2 P51532
Q8TAQ2 Q92782
Q8TAQ2 Q8NFD5
O14497 Q969G3
O14497 Q92922
O14497 P51531
O14497 Q92925
O14497 Q6STE5
O14497 Q96GM5
O14497 Q12824
O14497 Q92784
O14497 Q8WUZ0
O14497 Q8WUB8
O14497 Q92785
O14497 Q4VC05
O14497 Q9BQE9
O14497 P51532
O14497 Q92782
O14497 O94805
Q969G3 Q92922
Q969G3 P51531
Q969G3 Q92925
Q969G3 Q6STE5
Q969G3 Q96GM5
Q969G3 Q12824
Q969G3 Q92784
Q969G3 Q8WUZ0
Q969G3 Q8WUB8
Q969G3 Q92785
Q969G3 Q4VC05
Q969G3 Q9BQE9
Q969G3 P51532
Q969G3 Q86U86
Q969G3 Q68CP9
Q969G3 Q9NPI1
Q969G3 O94805
Q969G3 Q92782
Q969G3 Q8NFD5
Q92922 P51531
Q92922 Q92925
Q92922 Q6STE5
Q92922 Q96GM5
Q92922 Q12824
Q92922 Q92784
Q92922 Q8WUZ0
Q92922 Q8WUB8
Q92922 Q92785
Q92922 Q4VC05
Q92922 Q9BQE9
Q92922 P51532
Q92922 Q86U86
Q92922 Q68CP9
Q92922 Q9NPI1
Q92922 O94805
Q92922 Q92782
Q92922 Q8NFD5
Q92922 Q15532
Q92922 Q9H8M2
Q92922 Q9NZM4
Q92922 Q6AI39
P51531 Q92925
P51531 Q6STE5
P51531 Q96GM5
P51531 Q12824
P51531 Q92784
P51531 Q8WUB8
P51531 Q92782
P51531 O94805
P51531 Q8NFD5
P51531 Q15532
P51531 Q8WUZ0
P51531 Q9H8M2
P51531 Q9BQE9
P51531 Q4VC05
P51531 Q9NZM4
P51531 Q6AI39
Q92925 Q6STE5
Q92925 Q96GM5
Q92925 Q12824
Q92925 Q92784
Q92925 Q8WUB8
Q92925 Q86U86
Q92925 Q68CP9
Q92925 Q9NPI1
Q92925 O94805
Q92925 P51532
Q92925 Q8NFD5
Q6STE5 Q96GM5
Q6STE5 Q12824
Q6STE5 Q92784
Q6STE5 Q8WUB8
Q6STE5 Q92782
Q6STE5 O94805
Q6STE5 P51532
Q6STE5 Q8NFD5
Q96GM5 Q12824
Q96GM5 Q92784
Q96GM5 Q8WUZ0
Q96GM5 Q8WUB8
Q96GM5 Q92785
Q96GM5 Q4VC05
Q96GM5 Q9BQE9
Q96GM5 P51532
Q96GM5 Q86U86
Q96GM5 Q68CP9
Q96GM5 Q9NPI1
Q96GM5 O94805
Q96GM5 Q92782
Q96GM5 Q8NFD5
Q96GM5 Q15532
Q96GM5 Q9H8M2
Q96GM5 Q9NZM4
Q96GM5 Q6AI39
Q12824 Q92784
Q12824 Q8WUZ0
Q12824 Q8WUB8
Q12824 Q92785
Q12824 Q4VC05
Q12824 Q9BQE9
Q12824 P51532
Q12824 Q86U86
Q12824 Q68CP9
Q12824 Q9NPI1
Q12824 O94805
Q12824 Q92782
Q12824 Q8NFD5
Q6VEQ5 Q641Q2
C4AMC7 Q641Q2
A8MWX3 Q641Q2
Q9NQA3 Q641Q2
Q92784 Q92782
Q92784 O94805
Q92784 P51532
Q92784 Q8NFD5
Q8WUZ0 Q8WUB8
Q8WUZ0 Q92785
Q8WUZ0 Q4VC05
Q8WUZ0 Q9BQE9
Q8WUZ0 P51532
Q8WUZ0 Q15532
Q8WUZ0 Q9H8M2
Q8WUZ0 Q9NZM4
Q8WUZ0 Q6AI39
Q8WUZ0 O94805
Q8WUB8 Q92785
Q8WUB8 Q4VC05
Q8WUB8 Q9BQE9
Q8WUB8 P51532
Q8WUB8 Q86U86
Q8WUB8 Q68CP9
Q8WUB8 Q9NPI1
Q8WUB8 O94805
Q8WUB8 Q8NFD5
Q92785 Q4VC05
Q92785 Q9BQE9
Q92785 P51532
Q4VC05 Q9BQE9
Q4VC05 P51532
Q4VC05 Q15532
Q4VC05 Q9H8M2
Q4VC05 Q9NZM4
Q4VC05 Q6AI39
Q4VC05 O94805
Q9BQE9 P51532
Q9BQE9 Q15532
Q9BQE9 Q9H8M2
Q9BQE9 Q9NZM4
Q9BQE9 Q6AI39
Q9BQE9 O94805
P51532 Q86U86
P51532 Q68CP9
P51532 Q9NPI1
P51532 O94805
P51532 Q8NFD5
P51532 Q92782
P51532 Q15532
P51532 Q9H8M2
P51532 Q9NZM4
P51532 Q6AI39
Q86U86 Q68CP9
Q86U86 Q9NPI1
Q86U86 O94805
Q68CP9 Q9NPI1
Q68CP9 O94805
Q9NPI1 O94805
O94805 Q92782
O94805 Q8NFD5
O94805 Q15532
O94805 Q9H8M2
O94805 Q9NZM4
O94805 Q6AI39
Q92782 Q8NFD5
A9UHW6 Q14493
Q09161 P52298
Q09161 Q53F19
Q9H7E2 O95985
Q9H9A7 Q96E14
Q9H9A7 Q13472
Q9H9A7 P54132
Q96E14 Q13472
Q96E14 P54132
Q13472 P54132
Q8IYI0 Q86V20
Q8IYI0 Q6ZNX1
Q86V20 Q6ZNX1
Q13535 Q8WXE1
Q53F19 Q86W42
Q53F19 Q86V81
Q53F19 P84090
Q53F19 Q6I9Y2
Q53F19 Q9Y3Y2
Q53F19 Q13769
Q53F19 Q96FV9
Q53F19 Q9P127
Q53F19 Q96QD9
Q53F19 P82979
Q53F19 Q9BY77
Q53F19 Q96J01
Q53F19 Q8NI27
Q53F19 O75152
Q53F19 O00148
Q53F19 Q13838
Q5T200 Q15007
Q5T200 Q69YN4
Q5T200 Q75N03
Q15007 Q69YN4
Q15007 Q75N03
Q69YN4 Q75N03
O75208 Q5HYK3
O75208 Q9Y2Z9
O75208 Q9Y3A0
O75208 Q9NZJ6
O75208 Q99807
Q5HYK3 Q9Y2Z9
Q5HYK3 Q9Y3A0
Q5HYK3 Q9NZJ6
Q5HYK3 Q99807
Q9Y2Z9 Q9Y3A0
Q9Y2Z9 Q9NZJ6
Q9Y2Z9 Q99807
Q9Y3A0 Q9NZJ6
Q9Y3A0 Q99807
Q9NZJ6 Q99807
O14727 P99999
0000027480 Q15661
P20231 0000027482
Q9HB75 P78560
O60566 O43684
O60566 Q12834
O43684 Q12834
Q8TEV9 Q9HAD4
Q8TEV9 Q96LT7
Q9HAD4 Q96LT7
Q13563 P98161
Q9ULZ3 Q9C000
Q9ULZ3 Q96P20
Q9ULZ3 O14862
Q9ULZ3 O15553
Q9ULZ3 Q13075
Q9ULZ3 Q9NPP4
Q15532 Q9H8M2
Q15532 Q9NZM4
Q15532 Q6AI39
Q9H8M2 Q9NZM4
Q9H8M2 Q6AI39
Q13075 Q9NPP4
0000025603 Q96BI3
0000025603 P49810
0000025603 Q9NZ42
0000025603 0000025604
0000025603 Q92542
0000025603 Q8WW43
Q96BI3 P49810
Q96BI3 Q9NZ42
Q96BI3 0000025604
Q96BI3 Q92542
Q96BI3 P49768
Q96BI3 0000025591
Q96BI3 0000236055
P49810 Q9NZ42
P49810 0000025604
P49810 Q92542
P49810 Q8WW43
Q9NZ42 0000025604
Q9NZ42 Q92542
Q9NZ42 Q8WW43
Q9NZ42 P49768
Q9NZ42 0000025591
Q9NZ42 0000236055
0000025604 Q92542
0000025604 Q8WW43
Q92542 Q8WW43
Q92542 P49768
Q92542 0000025591
Q92542 0000236055
Q8WW43 P49768
Q8WW43 0000025591
Q8WW43 0000236055
P49768 0000025591
P49768 0000236055
0000025591 0000236055
P07384 P04632
P04632 P17655
Q07954 0000302751
Q07954 0000302750
0000302751 0000302750
Q6R327 P85299
Q6R327 Q9BPZ7
P85299 Q9BPZ7
Q96RL1 Q9NWV8
Q96RL1 Q6UWZ7
Q9NWV8 Q6UWZ7
Q9NWV8 Q15018
Q9NWV8 P34897
Q92547 Q9BX63
Q92878 O60934
Q92878 P49959
O60934 P49959
P21941 O15232
Q9UHA4 Q6IAA8
Q9UHA4 Q9Y2Q5
Q9UHA4 Q0VGL1
Q9UHA4 O43504
Q6IAA8 Q9Y2Q5
Q6IAA8 Q0VGL1
Q6IAA8 O43504
Q9Y2Q5 Q0VGL1
Q9Y2Q5 O43504
Q0VGL1 O43504
P35658 Q9BW27
P35658 O15504
P35658 Q9UKX7
P35658 P12270
P35658 Q9NRG9
P35658 Q8NFH3
P35658 P52948
P35658 Q5SRE5
P35658 P49790
P35658 P55735
P35658 Q7Z3B4
P35658 Q8NFH5
P35658 Q96HA1
P35658 Q9BVL2
P35658 Q8TEM1
P35658 P49792
P35658 Q8WUM0
P35658 P78406
P35658 Q12769
P35658 P57740
P35658 Q92621
P35658 0000019930
P35658 Q8N1F7
P35658 Q8WYP5
P35658 Q9BTX1
P35658 0000019929
P35658 Q53GS7
P35658 Q8NFH4
P35658 P37198
P35658 Q99567
P35658 Q96EE3
P35658 O75694
Q9BW27 O15504
Q9BW27 Q9UKX7
Q9BW27 P12270
Q9BW27 Q9NRG9
Q9BW27 Q8NFH3
Q9BW27 P52948
Q9BW27 Q5SRE5
Q9BW27 P49790
Q9BW27 P55735
Q9BW27 Q7Z3B4
Q9BW27 Q8NFH5
Q9BW27 Q96HA1
Q9BW27 Q9BVL2
Q9BW27 Q8TEM1
Q9BW27 P49792
Q9BW27 Q8WUM0
Q9BW27 P78406
Q9BW27 Q12769
Q9BW27 P57740
Q9BW27 Q92621
Q9BW27 0000019930
Q9BW27 Q8N1F7
Q9BW27 Q8WYP5
Q9BW27 Q9BTX1
Q9BW27 0000019929
Q9BW27 Q53GS7
Q9BW27 Q8NFH4
Q9BW27 P37198
Q9BW27 Q99567
Q9BW27 Q96EE3
Q9BW27 O75694
O15504 Q9UKX7
O15504 P12270
O15504 Q9NRG9
O15504 Q8NFH3
O15504 P52948
O15504 Q5SRE5
O15504 P49790
O15504 P55735
O15504 Q7Z3B4
O15504 Q8NFH5
O15504 Q96HA1
O15504 Q9BVL2
O15504 Q8TEM1
O15504 P49792
O15504 Q8WUM0
O15504 P78406
O15504 Q12769
O15504 P57740
O15504 Q92621
O15504 0000019930
O15504 Q8N1F7
O15504 Q8WYP5
O15504 Q9BTX1
O15504 0000019929
O15504 Q53GS7
O15504 Q8NFH4
O15504 P37198
O15504 Q99567
O15504 Q96EE3
O15504 O75694
Q9UKX7 P12270
Q9UKX7 Q9NRG9
Q9UKX7 Q8NFH3
Q9UKX7 P52948
Q9UKX7 Q5SRE5
Q9UKX7 P49790
Q9UKX7 P55735
Q9UKX7 Q7Z3B4
Q9UKX7 Q8NFH5
Q9UKX7 Q96HA1
Q9UKX7 Q9BVL2
Q9UKX7 Q8TEM1
Q9UKX7 P49792
Q9UKX7 Q8WUM0
Q9UKX7 P78406
Q9UKX7 Q12769
Q9UKX7 P57740
Q9UKX7 Q92621
Q9UKX7 0000019930
Q9UKX7 Q8N1F7
Q9UKX7 Q8WYP5
Q9UKX7 Q9BTX1
Q9UKX7 0000019929
Q9UKX7 Q53GS7
Q9UKX7 Q8NFH4
Q9UKX7 P37198
Q9UKX7 Q99567
Q9UKX7 Q96EE3
Q9UKX7 O75694
P12270 Q9NRG9
P12270 Q8NFH3
P12270 P52948
P12270 Q5SRE5
P12270 P49790
P12270 P55735
P12270 Q7Z3B4
P12270 Q8NFH5
P12270 Q96HA1
P12270 Q9BVL2
P12270 Q8TEM1
P12270 P49792
P12270 Q8WUM0
P12270 P78406
P12270 Q12769
P12270 P57740
P12270 Q92621
P12270 0000019930
P12270 Q8N1F7
P12270 Q8WYP5
P12270 Q9BTX1
P12270 0000019929
P12270 Q53GS7
P12270 Q8NFH4
P12270 P37198
P12270 Q99567
P12270 Q96EE3
P12270 O75694
Q9NRG9 Q8NFH3
Q9NRG9 P52948
Q9NRG9 Q5SRE5
Q9NRG9 P49790
Q9NRG9 P55735
Q9NRG9 Q7Z3B4
Q9NRG9 Q8NFH5
Q9NRG9 Q96HA1
Q9NRG9 Q9BVL2
Q9NRG9 Q8TEM1
Q9NRG9 P49792
Q9NRG9 Q8WUM0
Q9NRG9 P78406
Q9NRG9 Q12769
Q9NRG9 P57740
Q9NRG9 Q92621
Q9NRG9 0000019930
Q9NRG9 Q8N1F7
Q9NRG9 Q8WYP5
Q9NRG9 Q9BTX1
Q9NRG9 0000019929
Q9NRG9 Q53GS7
Q9NRG9 Q8NFH4
Q9NRG9 P37198
Q9NRG9 Q99567
Q9NRG9 Q96EE3
Q9NRG9 O75694
Q8NFH3 P52948
Q8NFH3 Q5SRE5
Q8NFH3 P49790
Q8NFH3 P55735
Q8NFH3 Q7Z3B4
Q8NFH3 Q8NFH5
Q8NFH3 Q96HA1
Q8NFH3 Q9BVL2
Q8NFH3 Q8TEM1
Q8NFH3 P49792
Q8NFH3 Q8WUM0
Q8NFH3 P78406
Q8NFH3 Q12769
Q8NFH3 P57740
Q8NFH3 Q92621
Q8NFH3 0000019930
Q8NFH3 Q8N1F7
Q8NFH3 Q8WYP5
Q8NFH3 Q9BTX1
Q8NFH3 0000019929
Q8NFH3 Q53GS7
Q8NFH3 Q8NFH4
Q8NFH3 P37198
Q8NFH3 Q99567
Q8NFH3 Q96EE3
Q8NFH3 O75694
P52948 Q5SRE5
P52948 P49790
P52948 P55735
P52948 Q7Z3B4
P52948 Q8NFH5
P52948 Q96HA1
P52948 Q9BVL2
P52948 Q8TEM1
P52948 P49792
P52948 Q8WUM0
P52948 P78406
P52948 Q12769
P52948 P57740
P52948 Q92621
P52948 0000019930
P52948 Q8N1F7
P52948 Q8WYP5
P52948 Q9BTX1
P52948 0000019929
P52948 Q53GS7
P52948 Q8NFH4
P52948 P37198
P52948 Q99567
P52948 Q96EE3
P52948 O75694
Q5SRE5 P49790
Q5SRE5 P55735
Q5SRE5 Q7Z3B4
Q5SRE5 Q8NFH5
Q5SRE5 Q96HA1
Q5SRE5 Q9BVL2
Q5SRE5 Q8TEM1
Q5SRE5 P49792
Q5SRE5 Q8WUM0
Q5SRE5 P78406
Q5SRE5 Q12769
Q5SRE5 P57740
Q5SRE5 Q92621
Q5SRE5 0000019930
Q5SRE5 Q8N1F7
Q5SRE5 Q8WYP5
Q5SRE5 Q9BTX1
Q5SRE5 0000019929
Q5SRE5 Q53GS7
Q5SRE5 Q8NFH4
Q5SRE5 P37198
Q5SRE5 Q99567
Q5SRE5 Q96EE3
Q5SRE5 O75694
P49790 P55735
P49790 Q7Z3B4
P49790 Q8NFH5
P49790 Q96HA1
P49790 Q9BVL2
P49790 Q8TEM1
P49790 P49792
P49790 Q8WUM0
P49790 P78406
P49790 Q12769
P49790 P57740
P49790 Q92621
P49790 0000019930
P49790 Q8N1F7
P49790 Q8WYP5
P49790 Q9BTX1
P49790 0000019929
P49790 Q53GS7
P49790 Q8NFH4
P49790 P37198
P49790 Q99567
P49790 Q96EE3
P49790 O75694
P55735 Q7Z3B4
P55735 Q8NFH5
P55735 Q96HA1
P55735 Q9BVL2
P55735 Q8TEM1
P55735 P49792
P55735 Q8WUM0
P55735 P78406
P55735 Q12769
P55735 P57740
P55735 Q92621
P55735 0000019930
P55735 Q8N1F7
P55735 Q8WYP5
P55735 Q9BTX1
P55735 0000019929
P55735 Q53GS7
P55735 Q8NFH4
P55735 P37198
P55735 Q99567
P55735 Q96EE3
P55735 O75694
P55735 Q6PJI9
P55735 Q96S15
P55735 Q9NXC5
P55735 O94855
P55735 Q9Y6B6
P55735 Q9NR31
P55735 O94979
P55735 Q9NQW1
P55735 O95487
P55735 P53992
P55735 O95486
Q7Z3B4 Q8NFH5
Q7Z3B4 Q96HA1
Q7Z3B4 Q9BVL2
Q7Z3B4 Q8TEM1
Q7Z3B4 P49792
Q7Z3B4 Q8WUM0
Q7Z3B4 P78406
Q7Z3B4 Q12769
Q7Z3B4 P57740
Q7Z3B4 Q92621
Q7Z3B4 0000019930
Q7Z3B4 Q8N1F7
Q7Z3B4 Q8WYP5
Q7Z3B4 Q9BTX1
Q7Z3B4 0000019929
Q7Z3B4 Q53GS7
Q7Z3B4 Q8NFH4
Q7Z3B4 P37198
Q7Z3B4 Q99567
Q7Z3B4 Q96EE3
Q7Z3B4 O75694
Q8NFH5 Q96HA1
Q8NFH5 Q9BVL2
Q8NFH5 Q8TEM1
Q8NFH5 P49792
Q8NFH5 Q8WUM0
Q8NFH5 P78406
Q8NFH5 Q12769
Q8NFH5 P57740
Q8NFH5 Q92621
Q8NFH5 0000019930
Q8NFH5 Q8N1F7
Q8NFH5 Q8WYP5
Q8NFH5 Q9BTX1
Q8NFH5 0000019929
Q8NFH5 Q53GS7
Q8NFH5 Q8NFH4
Q8NFH5 P37198
Q8NFH5 Q99567
Q8NFH5 Q96EE3
Q8NFH5 O75694
Q96HA1 Q9BVL2
Q96HA1 Q8TEM1
Q96HA1 P49792
Q96HA1 Q8WUM0
Q96HA1 P78406
Q96HA1 Q12769
Q96HA1 P57740
Q96HA1 Q92621
Q96HA1 0000019930
Q96HA1 Q8N1F7
Q96HA1 Q8WYP5
Q96HA1 Q9BTX1
Q96HA1 0000019929
Q96HA1 Q53GS7
Q96HA1 Q8NFH4
Q96HA1 P37198
Q96HA1 Q99567
Q96HA1 Q96EE3
Q96HA1 O75694
Q9BVL2 Q8TEM1
Q9BVL2 P49792
Q9BVL2 Q8WUM0
Q9BVL2 P78406
Q9BVL2 Q12769
Q9BVL2 P57740
Q9BVL2 Q92621
Q9BVL2 0000019930
Q9BVL2 Q8N1F7
Q9BVL2 Q8WYP5
Q9BVL2 Q9BTX1
Q9BVL2 0000019929
Q9BVL2 Q53GS7
Q9BVL2 Q8NFH4
Q9BVL2 P37198
Q9BVL2 Q99567
Q9BVL2 Q96EE3
Q9BVL2 O75694
Q8TEM1 P49792
Q8TEM1 Q8WUM0
Q8TEM1 P78406
Q8TEM1 Q12769
Q8TEM1 P57740
Q8TEM1 Q92621
Q8TEM1 0000019930
Q8TEM1 Q8N1F7
Q8TEM1 Q8WYP5
Q8TEM1 Q9BTX1
Q8TEM1 0000019929
Q8TEM1 Q53GS7
Q8TEM1 Q8NFH4
Q8TEM1 P37198
Q8TEM1 Q99567
Q8TEM1 Q96EE3
Q8TEM1 O75694
P49792 Q8WUM0
P49792 P78406
P49792 Q12769
P49792 P57740
P49792 Q92621
P49792 0000019930
P49792 Q8N1F7
P49792 Q8WYP5
P49792 Q9BTX1
P49792 0000019929
P49792 Q53GS7
P49792 Q8NFH4
P49792 P37198
P49792 Q99567
P49792 Q96EE3
P49792 O75694
P49792 P46060
P49792 P63279
Q8WUM0 P78406
Q8WUM0 Q12769
Q8WUM0 P57740
Q8WUM0 Q92621
Q8WUM0 0000019930
Q8WUM0 Q8N1F7
Q8WUM0 Q8WYP5
Q8WUM0 Q9BTX1
Q8WUM0 0000019929
Q8WUM0 Q53GS7
Q8WUM0 Q8NFH4
Q8WUM0 P37198
Q8WUM0 Q99567
Q8WUM0 Q96EE3
Q8WUM0 O75694
P78406 Q12769
P78406 P57740
P78406 Q92621
P78406 0000019930
P78406 Q8N1F7
P78406 Q8WYP5
P78406 Q9BTX1
P78406 0000019929
P78406 Q53GS7
P78406 Q8NFH4
P78406 P37198
P78406 Q99567
P78406 Q96EE3
P78406 O75694
Q12769 P57740
Q12769 Q92621
Q12769 0000019930
Q12769 Q8N1F7
Q12769 Q8WYP5
Q12769 Q9BTX1
Q12769 0000019929
Q12769 Q53GS7
Q12769 Q8NFH4
Q12769 P37198
Q12769 Q99567
Q12769 Q96EE3
Q12769 O75694
P57740 Q92621
P57740 0000019930
P57740 Q8N1F7
P57740 Q8WYP5
P57740 Q9BTX1
P57740 0000019929
P57740 Q53GS7
P57740 Q8NFH4
P57740 P37198
P57740 Q99567
P57740 Q96EE3
P57740 O75694
Q92621 0000019930
Q92621 Q8N1F7
Q92621 Q8WYP5
Q92621 Q9BTX1
Q92621 0000019929
Q92621 Q53GS7
Q92621 Q8NFH4
Q92621 P37198
Q92621 Q99567
Q92621 Q96EE3
Q92621 O75694
0000019930 Q8N1F7
0000019930 Q8WYP5
0000019930 Q9BTX1
0000019930 0000019929
0000019930 Q53GS7
0000019930 Q8NFH4
0000019930 P37198
0000019930 Q99567
0000019930 Q96EE3
0000019930 O75694
Q8N1F7 Q8WYP5
Q8N1F7 Q9BTX1
Q8N1F7 0000019929
Q8N1F7 Q53GS7
Q8N1F7 Q8NFH4
Q8N1F7 P37198
Q8N1F7 Q99567
Q8N1F7 Q96EE3
Q8N1F7 O75694
Q8WYP5 Q9BTX1
Q8WYP5 0000019929
Q8WYP5 Q53GS7
Q8WYP5 Q8NFH4
Q8WYP5 P37198
Q8WYP5 Q99567
Q8WYP5 Q96EE3
Q8WYP5 O75694
Q9BTX1 0000019929
Q9BTX1 Q53GS7
Q9BTX1 Q8NFH4
Q9BTX1 P37198
Q9BTX1 Q99567
Q9BTX1 Q96EE3
Q9BTX1 O75694
0000019929 Q53GS7
0000019929 Q8NFH4
0000019929 P37198
0000019929 Q99567
0000019929 Q96EE3
0000019929 O75694
Q53GS7 Q8NFH4
Q53GS7 P37198
Q53GS7 Q99567
Q53GS7 Q96EE3
Q53GS7 O75694
Q8NFH4 P37198
Q8NFH4 Q99567
Q8NFH4 Q96EE3
Q8NFH4 O75694
P37198 Q99567
P37198 Q96EE3
P37198 O75694
Q99567 Q96EE3
Q99567 O75694
Q96EE3 O75694
Q96EE3 Q6PJI9
Q96EE3 Q96S15
Q96EE3 Q9NXC5
Q9NV70 Q9UPT5
Q9NV70 Q96A65
Q9NV70 O60645
Q9NV70 Q8IYI6
Q9NV70 Q96KP1
Q9NV70 Q8TAG9
Q9NV70 O00471
Q9NV70 Q9Y2D4
Q9UPT5 Q96A65
Q9UPT5 O60645
Q9UPT5 Q8IYI6
Q9UPT5 Q96KP1
Q9UPT5 Q8TAG9
Q9UPT5 O00471
Q9UPT5 Q9Y2D4
Q96A65 O60645
Q96A65 Q8IYI6
Q96A65 Q96KP1
Q96A65 Q8TAG9
Q96A65 O00471
Q96A65 Q9Y2D4
O60645 Q8IYI6
O60645 Q96KP1
O60645 Q8TAG9
O60645 O00471
O60645 Q9Y2D4
Q8IYI6 Q96KP1
Q8IYI6 Q8TAG9
Q8IYI6 O00471
Q8IYI6 Q9Y2D4
Q96KP1 Q8TAG9
Q96KP1 O00471
Q96KP1 Q9Y2D4
Q8TAG9 O00471
O00471 Q9Y2D4
P00740 0000027759
P00740 0000027757
0000027759 0000027757
O95876 Q9ULD6
O95876 Q9BT04
Q9ULD6 Q9BT04
Q9HBG6 Q9P2L0
Q9HBG6 Q96RY7
Q9HBG6 Q8NEZ3
Q9HBG6 Q96FT9
Q9HBG6 Q7Z4L5
Q9P2L0 Q96RY7
Q9P2L0 Q8NEZ3
Q9P2L0 Q96FT9
Q9P2L0 Q7Z4L5
Q96RY7 Q8NEZ3
Q96RY7 Q96FT9
Q96RY7 Q7Z4L5
Q8NEZ3 Q96FT9
Q8NEZ3 Q7Z4L5
Q96FT9 Q7Z4L5
Q8IY31 Q96AJ1
Q8IY31 Q9BW83
Q8IY31 Q13099
Q8IY31 Q9H7X7
Q8IY31 Q8TDR0
Q8IY31 Q9Y366
Q8IY31 Q9Y547
Q8IY31 Q8WYA0
Q8IY31 Q9UG01
Q8IY31 Q96LB3
Q8IY31 Q9P2H3
Q8IY31 A0AVF1
Q8IY31 Q9NQC8
Q8IY31 Q9NWB7
Q8IY31 Q8N4P2
Q96AJ1 Q9BW83
Q96AJ1 Q13099
Q96AJ1 Q9H7X7
Q96AJ1 Q8TDR0
Q96AJ1 Q9Y366
Q96AJ1 Q9Y547
Q96AJ1 Q8WYA0
Q96AJ1 Q9UG01
Q96AJ1 Q96LB3
Q96AJ1 Q9P2H3
Q96AJ1 A0AVF1
Q96AJ1 Q9NQC8
Q96AJ1 Q9NWB7
Q96AJ1 Q8N4P2
Q9BW83 Q13099
Q9BW83 Q9H7X7
Q9BW83 Q8TDR0
Q9BW83 Q9Y366
Q9BW83 Q9Y547
Q9BW83 Q8WYA0
Q9BW83 Q9UG01
Q9BW83 Q96LB3
Q9BW83 Q9P2H3
Q9BW83 A0AVF1
Q9BW83 Q9NQC8
Q9BW83 Q9NWB7
Q9BW83 Q8N4P2
Q13099 Q9H7X7
Q13099 Q8TDR0
Q13099 Q9Y366
Q13099 Q9Y547
Q13099 Q8WYA0
Q13099 Q9UG01
Q13099 Q96LB3
Q13099 Q9P2H3
Q13099 A0AVF1
Q13099 Q9NQC8
Q13099 Q9NWB7
Q13099 Q8N4P2
Q9H7X7 Q8TDR0
Q9H7X7 Q9Y366
Q9H7X7 Q9Y547
Q9H7X7 Q8WYA0
Q9H7X7 Q9UG01
Q9H7X7 Q96LB3
Q9H7X7 Q9P2H3
Q9H7X7 A0AVF1
Q9H7X7 Q9NQC8
Q9H7X7 Q9NWB7
Q9H7X7 Q8N4P2
Q8TDR0 Q9Y366
Q8TDR0 Q9Y547
Q8TDR0 Q8WYA0
Q8TDR0 Q9UG01
Q8TDR0 Q96LB3
Q8TDR0 Q9P2H3
Q8TDR0 A0AVF1
Q8TDR0 Q9NQC8
Q8TDR0 Q9NWB7
Q8TDR0 Q8N4P2
Q9Y366 Q9Y547
Q9Y366 Q8WYA0
Q9Y366 Q9UG01
Q9Y366 Q96LB3
Q9Y366 Q9P2H3
Q9Y366 A0AVF1
Q9Y366 Q9NQC8
Q9Y366 Q9NWB7
Q9Y366 Q8N4P2
Q9Y547 Q8WYA0
Q9Y547 Q9UG01
Q9Y547 Q96LB3
Q9Y547 Q9P2H3
Q9Y547 A0AVF1
Q9Y547 Q9NQC8
Q9Y547 Q9NWB7
Q9Y547 Q8N4P2
Q8WYA0 Q9UG01
Q8WYA0 Q96LB3
Q8WYA0 Q9P2H3
Q8WYA0 A0AVF1
Q8WYA0 Q9NQC8
Q8WYA0 Q9NWB7
Q8WYA0 Q8N4P2
Q9UG01 Q96LB3
Q9UG01 Q9P2H3
Q9UG01 A0AVF1
Q9UG01 Q9NQC8
Q9UG01 Q9NWB7
Q9UG01 Q8N4P2
Q96LB3 Q9P2H3
Q96LB3 A0AVF1
Q96LB3 Q9NQC8
Q96LB3 Q9NWB7
Q96LB3 Q8N4P2
Q9P2H3 A0AVF1
Q9P2H3 Q9NQC8
Q9P2H3 Q9NWB7
Q9P2H3 Q8N4P2
A0AVF1 Q9NQC8
A0AVF1 Q9NWB7
A0AVF1 Q8N4P2
Q9NQC8 Q9NWB7
Q9NQC8 Q8N4P2
Q9NWB7 Q8N4P2
P63172 Q13409
P63172 Q14204
P63172 Q9NP97
P63172 P63167
P63172 O43237
P63172 Q8TCX1
P63172 Q8WVS4
P63172 Q96EX3
P63172 Q8NCM8
P63172 Q8WW35
P63172 Q96FJ2
P63172 Q8TF09
P63172 Q9Y6G9
P63172 O14576
Q13409 Q14204
Q13409 Q9NP97
Q13409 P63167
Q13409 O43237
Q13409 Q9Y6G9
Q13409 Q8TF09
Q13409 Q96FJ2
Q13409 P51808
Q14204 Q9NP97
Q14204 P63167
Q14204 O43237
Q14204 Q9Y6G9
Q14204 O14576
Q14204 Q8TF09
Q14204 Q96FJ2
Q14204 P51808
Q9NP97 P63167
Q9NP97 O43237
Q9NP97 Q8TCX1
Q9NP97 Q8WVS4
Q9NP97 Q96EX3
Q9NP97 Q8NCM8
Q9NP97 Q8WW35
Q9NP97 Q96FJ2
Q9NP97 P51808
Q9NP97 Q9Y6G9
Q9NP97 O14576
P63167 O43237
P63167 Q8TCX1
P63167 Q8WVS4
P63167 Q96EX3
P63167 Q8NCM8
P63167 Q8WW35
P63167 P51808
P63167 Q8TF09
P63167 Q9Y6G9
P63167 O14576
O43237 O14576
O43237 Q8TF09
O43237 Q96FJ2
O43237 P51808
Q96GS4 O95295
Q96GS4 Q969J3
Q96GS4 Q96FH0
Q96GS4 P78537
Q96GS4 Q9BQD3
Q96GS4 Q96B45
Q96GS4 Q6QNY1
O95295 Q969J3
O95295 Q96FH0
O95295 P78537
O95295 Q9BQD3
O95295 Q96B45
O95295 Q6QNY1
O95295 Q8TDH9
O95295 Q96EV8
O95295 Q9UL45
O95295 Q9NUP1
O95295 Q6QNY0
Q969J3 Q96FH0
Q969J3 P78537
Q969J3 Q9BQD3
Q969J3 Q96B45
Q969J3 Q6QNY1
Q96FH0 P78537
Q96FH0 Q9BQD3
Q96FH0 Q96B45
Q96FH0 Q6QNY1
P78537 Q9BQD3
P78537 Q96B45
P78537 Q6QNY1
P78537 Q8TDH9
P78537 Q96EV8
P78537 Q9UL45
P78537 Q9NUP1
P78537 Q6QNY0
Q9BQD3 Q96B45
Q9BQD3 Q6QNY1
Q96B45 Q6QNY1
Q6QNY1 Q8TDH9
Q6QNY1 Q96EV8
Q6QNY1 Q9UL45
Q6QNY1 Q9NUP1
Q6QNY1 Q6QNY0
Q92902 Q9NQG7
Q86YV9 Q969F9
Q86YV9 Q9UPZ3
Q969F9 Q9UPZ3
P61966 O43747
P61966 Q9BXS5
P61966 Q10567
P61966 Q9Y6Q5
O43747 Q9BXS5
O43747 Q10567
O43747 P56377
O43747 Q96PC3
O43747 Q9Y6Q5
Q9BXS5 Q10567
Q9BXS5 P56377
Q9BXS5 Q96PC3
Q10567 P56377
Q10567 Q96PC3
Q10567 Q9Y6Q5
Q9Y2T2 O00203
Q9Y2T2 Q92572
Q9Y2T2 O14617
Q9Y2T2 P59780
O00203 Q92572
O00203 O14617
O00203 P59780
Q92572 O14617
Q92572 P53677
Q92572 Q13367
O14617 P59780
O14617 Q13367
O14617 P53677
P59780 Q13367
P59780 P53677
Q13367 P53677
P02452 P08123
P08572 P02462
Q14031 P29400
P29400 P53420
P29400 Q01955
P53420 Q01955
P05997 P20908
P05997 P25940
P05997 P12107
P20908 P25940
P20908 P12107
P12110 P12109
P12110 P12111
P12109 P12111
P25067 P27658
P20849 Q14050
P20849 Q14055
Q14050 Q14055
P12107 P13942
P12107 P02458
P13942 P02458
P07942 P25391
P07942 P11047
P07942 P24043
P07942 Q16787
P07942 Q16363
P07942 O15230
P07942 Q9Y6N6
P25391 P11047
P25391 P55268
P11047 P24043
P11047 P55268
P11047 Q16787
P11047 Q16363
P11047 O15230
P24043 P55268
P24043 Q9Y6N6
P55268 Q16787
P55268 Q16363
P55268 O15230
P55268 Q9Y6N6
P55268 Q13753
Q16787 Q13751
Q16787 Q13753
Q13751 Q13753
Q13753 O15230
Q16363 Q9Y6N6
O15230 Q9Y6N6
P63010 P53680
P63010 Q96CW1
P63010 O95782
P63010 O94973
P53680 Q96CW1
P53680 O95782
P53680 O94973
Q96CW1 O95782
Q96CW1 O94973
O00189 Q9Y587
O00189 Q9UPM8
O00189 Q9Y6B7
Q9Y587 Q9UPM8
Q9Y587 Q9Y6B7
Q9UPM8 Q9Y6B7
Q2VPB7 O43299
Q2VPB7 Q9NUS5
Q2VPB7 Q9H0R1
O43299 Q9NUS5
O43299 Q9H0R1
Q9NUS5 Q9H0R1
Q9Y2R5 P82914
Q9Y2R5 Q92552
Q9Y2R5 P82663
Q9Y2R5 P82664
Q9Y2R5 P82912
Q9Y2R5 Q92665
Q9Y2R5 P82673
Q9Y2R5 Q9BYN8
Q9Y2R5 Q9Y399
Q9Y2R5 P82930
Q9Y2R5 Q96EY7
Q9Y2R5 P82933
Q9Y2R5 Q9NWT8
Q9Y2R5 P51398
Q9Y2R5 Q9Y2Q9
Q9Y2R5 Q9Y676
Q9Y2R5 P82932
Q9Y2R5 Q9Y3D3
Q9Y2R5 Q9Y3D5
Q9Y2R5 Q9Y3D9
Q9Y2R5 P82921
Q9Y2R5 P82675
Q9Y2R5 Q96EL2
Q9Y2R5 O15235
Q9Y2R5 URS000044DFF6
Q9Y2R5 Q96BP2
Q9Y2R5 P82650
Q9Y2R5 O60783
Q9Y2R5 Q9Y2R9
Q9Y2R5 Q9Y291
P82914 Q92552
P82914 P82663
P82914 P82664
P82914 P82912
P82914 Q92665
P82914 P82673
P82914 Q9BYN8
P82914 Q9Y399
P82914 P82930
P82914 Q96EY7
P82914 P82933
P82914 Q9NWT8
P82914 P51398
P82914 Q9Y2Q9
P82914 Q9Y676
P82914 P82932
P82914 Q9Y3D3
P82914 Q9Y3D5
P82914 Q9Y3D9
P82914 P82921
P82914 P82675
P82914 Q96EL2
P82914 O15235
P82914 URS000044DFF6
P82914 Q96BP2
P82914 P82650
P82914 O60783
P82914 Q9Y2R9
P82914 Q9Y291
Q92552 P82663
Q92552 P82664
Q92552 P82912
Q92552 Q92665
Q92552 P82673
Q92552 Q9BYN8
Q92552 Q9Y399
Q92552 P82930
Q92552 Q96EY7
Q92552 P82933
Q92552 Q9NWT8
Q92552 P51398
Q92552 Q9Y2Q9
Q92552 Q9Y676
Q92552 P82932
Q92552 Q9Y3D3
Q92552 Q9Y3D5
Q92552 Q9Y3D9
Q92552 P82921
Q92552 P82675
Q92552 Q96EL2
Q92552 O15235
Q92552 URS000044DFF6
Q92552 Q96BP2
Q92552 P82650
Q92552 O60783
Q92552 Q9Y2R9
Q92552 Q9Y291
P82663 P82664
P82663 P82912
P82663 Q92665
P82663 P82673
P82663 Q9BYN8
P82663 Q9Y399
P82663 P82930
P82663 Q96EY7
P82663 P82933
P82663 Q9NWT8
P82663 P51398
P82663 Q9Y2Q9
P82663 Q9Y676
P82663 P82932
P82663 Q9Y3D3
P82663 Q9Y3D5
P82663 Q9Y3D9
P82663 P82921
P82663 P82675
P82663 Q96EL2
P82663 O15235
P82663 URS000044DFF6
P82663 Q96BP2
P82663 P82650
P82663 O60783
P82663 Q9Y2R9
P82663 Q9Y291
P82664 P82912
P82664 Q92665
P82664 P82673
P82664 Q9BYN8
P82664 Q9Y399
P82664 P82930
P82664 Q96EY7
P82664 P82933
P82664 Q9NWT8
P82664 P51398
P82664 Q9Y2Q9
P82664 Q9Y676
P82664 P82932
P82664 Q9Y3D3
P82664 Q9Y3D5
P82664 Q9Y3D9
P82664 P82921
P82664 P82675
P82664 Q96EL2
P82664 O15235
P82664 URS000044DFF6
P82664 Q96BP2
P82664 P82650
P82664 O60783
P82664 Q9Y2R9
P82664 Q9Y291
P82912 Q92665
P82912 P82673
P82912 Q9BYN8
P82912 Q9Y399
P82912 P82930
P82912 Q96EY7
P82912 P82933
P82912 Q9NWT8
P82912 P51398
P82912 Q9Y2Q9
P82912 Q9Y676
P82912 P82932
P82912 Q9Y3D3
P82912 Q9Y3D5
P82912 Q9Y3D9
P82912 P82921
P82912 P82675
P82912 Q96EL2
P82912 O15235
P82912 URS000044DFF6
P82912 Q96BP2
P82912 P82650
P82912 O60783
P82912 Q9Y2R9
P82912 Q9Y291
Q92665 P82673
Q92665 Q9BYN8
Q92665 Q9Y399
Q92665 P82930
Q92665 Q96EY7
Q92665 P82933
Q92665 Q9NWT8
Q92665 P51398
Q92665 Q9Y2Q9
Q92665 Q9Y676
Q92665 P82932
Q92665 Q9Y3D3
Q92665 Q9Y3D5
Q92665 Q9Y3D9
Q92665 P82921
Q92665 P82675
Q92665 Q96EL2
Q92665 O15235
Q92665 URS000044DFF6
Q92665 Q96BP2
Q92665 P82650
Q92665 O60783
Q92665 Q9Y2R9
Q92665 Q9Y291
P82673 Q9BYN8
P82673 Q9Y399
P82673 P82930
P82673 Q96EY7
P82673 P82933
P82673 Q9NWT8
P82673 P51398
P82673 Q9Y2Q9
P82673 Q9Y676
P82673 P82932
P82673 Q9Y3D3
P82673 Q9Y3D5
P82673 Q9Y3D9
P82673 P82921
P82673 P82675
P82673 Q96EL2
P82673 O15235
P82673 URS000044DFF6
P82673 Q96BP2
P82673 P82650
P82673 O60783
P82673 Q9Y2R9
P82673 Q9Y291
Q9BYN8 Q9Y399
Q9BYN8 P82930
Q9BYN8 Q96EY7
Q9BYN8 P82933
Q9BYN8 Q9NWT8
Q9BYN8 P51398
Q9BYN8 Q9Y2Q9
Q9BYN8 Q9Y676
Q9BYN8 P82932
Q9BYN8 Q9Y3D3
Q9BYN8 Q9Y3D5
Q9BYN8 Q9Y3D9
Q9BYN8 P82921
Q9BYN8 P82675
Q9BYN8 Q96EL2
Q9BYN8 O15235
Q9BYN8 URS000044DFF6
Q9BYN8 Q96BP2
Q9BYN8 P82650
Q9BYN8 O60783
Q9BYN8 Q9Y2R9
Q9BYN8 Q9Y291
Q9Y399 P82930
Q9Y399 Q96EY7
Q9Y399 P82933
Q9Y399 Q9NWT8
Q9Y399 P51398
Q9Y399 Q9Y2Q9
Q9Y399 Q9Y676
Q9Y399 P82932
Q9Y399 Q9Y3D3
Q9Y399 Q9Y3D5
Q9Y399 Q9Y3D9
Q9Y399 P82921
Q9Y399 P82675
Q9Y399 Q96EL2
Q9Y399 O15235
Q9Y399 URS000044DFF6
Q9Y399 Q96BP2
Q9Y399 P82650
Q9Y399 O60783
Q9Y399 Q9Y2R9
Q9Y399 Q9Y291
P82930 Q96EY7
P82930 P82933
P82930 Q9NWT8
P82930 P51398
P82930 Q9Y2Q9
P82930 Q9Y676
P82930 P82932
P82930 Q9Y3D3
P82930 Q9Y3D5
P82930 Q9Y3D9
P82930 P82921
P82930 P82675
P82930 Q96EL2
P82930 O15235
P82930 URS000044DFF6
P82930 Q96BP2
P82930 P82650
P82930 O60783
P82930 Q9Y2R9
P82930 Q9Y291
Q96EY7 P82933
Q96EY7 Q9NWT8
Q96EY7 P51398
Q96EY7 Q9Y2Q9
Q96EY7 Q9Y676
Q96EY7 P82932
Q96EY7 Q9Y3D3
Q96EY7 Q9Y3D5
Q96EY7 Q9Y3D9
Q96EY7 P82921
Q96EY7 P82675
Q96EY7 Q96EL2
Q96EY7 O15235
Q96EY7 URS000044DFF6
Q96EY7 Q96BP2
Q96EY7 P82650
Q96EY7 O60783
Q96EY7 Q9Y2R9
Q96EY7 Q9Y291
P82933 Q9NWT8
P82933 P51398
P82933 Q9Y2Q9
P82933 Q9Y676
P82933 P82932
P82933 Q9Y3D3
P82933 Q9Y3D5
P82933 Q9Y3D9
P82933 P82921
P82933 P82675
P82933 Q96EL2
P82933 O15235
P82933 URS000044DFF6
P82933 Q96BP2
P82933 P82650
P82933 O60783
P82933 Q9Y2R9
P82933 Q9Y291
Q9NWT8 P51398
Q9NWT8 Q9Y2Q9
Q9NWT8 Q9Y676
Q9NWT8 P82932
Q9NWT8 Q9Y3D3
Q9NWT8 Q9Y3D5
Q9NWT8 Q9Y3D9
Q9NWT8 P82921
Q9NWT8 P82675
Q9NWT8 Q96EL2
Q9NWT8 O15235
Q9NWT8 URS000044DFF6
Q9NWT8 Q96BP2
Q9NWT8 P82650
Q9NWT8 O60783
Q9NWT8 Q9Y2R9
Q9NWT8 Q9Y291
P51398 Q9Y2Q9
P51398 Q9Y676
P51398 P82932
P51398 Q9Y3D3
P51398 Q9Y3D5
P51398 Q9Y3D9
P51398 P82921
P51398 P82675
P51398 Q96EL2
P51398 O15235
P51398 URS000044DFF6
P51398 Q96BP2
P51398 P82650
P51398 O60783
P51398 Q9Y2R9
P51398 Q9Y291
Q9Y2Q9 Q9Y676
Q9Y2Q9 P82932
Q9Y2Q9 Q9Y3D3
Q9Y2Q9 Q9Y3D5
Q9Y2Q9 Q9Y3D9
Q9Y2Q9 P82921
Q9Y2Q9 P82675
Q9Y2Q9 Q96EL2
Q9Y2Q9 O15235
Q9Y2Q9 URS000044DFF6
Q9Y2Q9 Q96BP2
Q9Y2Q9 P82650
Q9Y2Q9 O60783
Q9Y2Q9 Q9Y2R9
Q9Y2Q9 Q9Y291
Q9Y676 P82932
Q9Y676 Q9Y3D3
Q9Y676 Q9Y3D5
Q9Y676 Q9Y3D9
Q9Y676 P82921
Q9Y676 P82675
Q9Y676 Q96EL2
Q9Y676 O15235
Q9Y676 URS000044DFF6
Q9Y676 Q96BP2
Q9Y676 P82650
Q9Y676 O60783
Q9Y676 Q9Y2R9
Q9Y676 Q9Y291
P82932 Q9Y3D3
P82932 Q9Y3D5
P82932 Q9Y3D9
P82932 P82921
P82932 P82675
P82932 Q96EL2
P82932 O15235
P82932 URS000044DFF6
P82932 Q96BP2
P82932 P82650
P82932 O60783
P82932 Q9Y2R9
P82932 Q9Y291
Q9Y3D3 Q9Y3D5
Q9Y3D3 Q9Y3D9
Q9Y3D3 P82921
Q9Y3D3 P82675
Q9Y3D3 Q96EL2
Q9Y3D3 O15235
Q9Y3D3 URS000044DFF6
Q9Y3D3 Q96BP2
Q9Y3D3 P82650
Q9Y3D3 O60783
Q9Y3D3 Q9Y2R9
Q9Y3D3 Q9Y291
Q9Y3D5 Q9Y3D9
Q9Y3D5 P82921
Q9Y3D5 P82675
Q9Y3D5 Q96EL2
Q9Y3D5 O15235
Q9Y3D5 URS000044DFF6
Q9Y3D5 Q96BP2
Q9Y3D5 P82650
Q9Y3D5 O60783
Q9Y3D5 Q9Y2R9
Q9Y3D5 Q9Y291
Q9Y3D9 P82921
Q9Y3D9 P82675
Q9Y3D9 Q96EL2
Q9Y3D9 O15235
Q9Y3D9 URS000044DFF6
Q9Y3D9 Q96BP2
Q9Y3D9 P82650
Q9Y3D9 O60783
Q9Y3D9 Q9Y2R9
Q9Y3D9 Q9Y291
P82921 P82675
P82921 Q96EL2
P82921 O15235
P82921 URS000044DFF6
P82921 Q96BP2
P82921 P82650
P82921 O60783
P82921 Q9Y2R9
P82921 Q9Y291
P82675 Q96EL2
P82675 O15235
P82675 URS000044DFF6
P82675 Q96BP2
P82675 P82650
P82675 O60783
P82675 Q9Y2R9
P82675 Q9Y291
Q96EL2 O15235
Q96EL2 URS000044DFF6
Q96EL2 Q96BP2
Q96EL2 P82650
Q96EL2 O60783
Q96EL2 Q9Y2R9
Q96EL2 Q9Y291
O15235 URS000044DFF6
O15235 Q96BP2
O15235 P82650
O15235 O60783
O15235 Q9Y2R9
O15235 Q9Y291
URS000044DFF6 Q96BP2
URS000044DFF6 P82650
URS000044DFF6 O60783
URS000044DFF6 Q9Y2R9
URS000044DFF6 Q9Y291
Q96BP2 P82650
Q96BP2 O60783
Q96BP2 Q9Y2R9
Q96BP2 Q9Y291
P82650 O60783
P82650 Q9Y2R9
P82650 Q9Y291
O60783 Q9Y2R9
O60783 Q9Y291
Q9Y2R9 Q9Y291
Q5T653 Q9BYD1
Q5T653 O75394
Q5T653 Q9NX20
Q5T653 Q9BZE1
Q5T653 Q9P015
Q5T653 Q9BYC8
Q5T653 Q9BQ48
Q5T653 Q8TAE8
Q5T653 Q8IXM3
Q5T653 Q86TS9
Q5T653 Q7Z2W9
Q5T653 Q9BYD6
Q5T653 URS000080E36F
Q5T653 Q9NYK5
Q5T653 Q9H0U6
Q5T653 P52815
Q5T653 Q16540
Q5T653 Q9BYC9
Q5T653 Q9H9J2
Q5T653 Q9NQ50
Q5T653 Q9NP92
Q5T653 Q9BRJ2
Q5T653 Q7Z7H8
Q5T653 P09001
Q5T653 Q9BYD3
Q5T653 Q13405
Q5T653 Q9P0J6
Q5T653 Q9Y3B7
Q5T653 Q9NWU5
Q5T653 Q9NZE8
Q5T653 Q9HD33
Q5T653 Q6P161
Q5T653 Q14197
Q5T653 Q4U2R6
Q5T653 Q9H2W6
Q5T653 URS000047A7F4
Q5T653 Q96GC5
Q5T653 Q13084
Q5T653 Q9BQC6
Q5T653 Q96DV4
Q5T653 Q9NVS2
Q5T653 P49406
Q5T653 Q8N983
Q5T653 Q96EL3
Q5T653 Q8N5N7
Q5T653 Q9Y6G3
Q5T653 Q6P1L8
Q5T653 Q7Z7F7
Q5T653 Q9P0M9
Q5T653 Q9NRX2
Q5T653 Q8TCC3
Q5T653 Q9BYD2
Q5T653 Q96A35
Q9BYD1 O75394
Q9BYD1 Q9NX20
Q9BYD1 Q9BZE1
Q9BYD1 Q9P015
Q9BYD1 Q9BYC8
Q9BYD1 Q9BQ48
Q9BYD1 Q8TAE8
Q9BYD1 Q8IXM3
Q9BYD1 Q86TS9
Q9BYD1 Q7Z2W9
Q9BYD1 Q9BYD6
Q9BYD1 URS000080E36F
Q9BYD1 Q9NYK5
Q9BYD1 Q9H0U6
Q9BYD1 P52815
Q9BYD1 Q16540
Q9BYD1 Q9BYC9
Q9BYD1 Q9H9J2
Q9BYD1 Q9NQ50
Q9BYD1 Q9NP92
Q9BYD1 Q9BRJ2
Q9BYD1 Q7Z7H8
Q9BYD1 P09001
Q9BYD1 Q9BYD3
Q9BYD1 Q13405
Q9BYD1 Q9P0J6
Q9BYD1 Q9Y3B7
Q9BYD1 Q9NWU5
Q9BYD1 Q9NZE8
Q9BYD1 Q9HD33
Q9BYD1 Q6P161
Q9BYD1 Q14197
Q9BYD1 Q4U2R6
Q9BYD1 Q9H2W6
Q9BYD1 URS000047A7F4
Q9BYD1 Q96GC5
Q9BYD1 Q13084
Q9BYD1 Q9BQC6
Q9BYD1 Q96DV4
Q9BYD1 Q9NVS2
Q9BYD1 P49406
Q9BYD1 Q8N983
Q9BYD1 Q96EL3
Q9BYD1 Q8N5N7
Q9BYD1 Q9Y6G3
Q9BYD1 Q6P1L8
Q9BYD1 Q7Z7F7
Q9BYD1 Q9P0M9
Q9BYD1 Q9NRX2
Q9BYD1 Q8TCC3
Q9BYD1 Q9BYD2
Q9BYD1 Q96A35
O75394 Q9NX20
O75394 Q9BZE1
O75394 Q9P015
O75394 Q9BYC8
O75394 Q9BQ48
O75394 Q8TAE8
O75394 Q8IXM3
O75394 Q86TS9
O75394 Q7Z2W9
O75394 Q9BYD6
O75394 URS000080E36F
O75394 Q9NYK5
O75394 Q9H0U6
O75394 P52815
O75394 Q16540
O75394 Q9BYC9
O75394 Q9H9J2
O75394 Q9NQ50
O75394 Q9NP92
O75394 Q9BRJ2
O75394 Q7Z7H8
O75394 P09001
O75394 Q9BYD3
O75394 Q13405
O75394 Q9P0J6
O75394 Q9Y3B7
O75394 Q9NWU5
O75394 Q9NZE8
O75394 Q9HD33
O75394 Q6P161
O75394 Q14197
O75394 Q4U2R6
O75394 Q9H2W6
O75394 URS000047A7F4
O75394 Q96GC5
O75394 Q13084
O75394 Q9BQC6
O75394 Q96DV4
O75394 Q9NVS2
O75394 P49406
O75394 Q8N983
O75394 Q96EL3
O75394 Q8N5N7
O75394 Q9Y6G3
O75394 Q6P1L8
O75394 Q7Z7F7
O75394 Q9P0M9
O75394 Q9NRX2
O75394 Q8TCC3
O75394 Q9BYD2
O75394 Q96A35
Q9NX20 Q9BZE1
Q9NX20 Q9P015
Q9NX20 Q9BYC8
Q9NX20 Q9BQ48
Q9NX20 Q8TAE8
Q9NX20 Q8IXM3
Q9NX20 Q86TS9
Q9NX20 Q7Z2W9
Q9NX20 Q9BYD6
Q9NX20 URS000080E36F
Q9NX20 Q9NYK5
Q9NX20 Q9H0U6
Q9NX20 P52815
Q9NX20 Q16540
Q9NX20 Q9BYC9
Q9NX20 Q9H9J2
Q9NX20 Q9NQ50
Q9NX20 Q9NP92
Q9NX20 Q9BRJ2
Q9NX20 Q7Z7H8
Q9NX20 P09001
Q9NX20 Q9BYD3
Q9NX20 Q13405
Q9NX20 Q9P0J6
Q9NX20 Q9Y3B7
Q9NX20 Q9NWU5
Q9NX20 Q9NZE8
Q9NX20 Q9HD33
Q9NX20 Q6P161
Q9NX20 Q14197
Q9NX20 Q4U2R6
Q9NX20 Q9H2W6
Q9NX20 URS000047A7F4
Q9NX20 Q96GC5
Q9NX20 Q13084
Q9NX20 Q9BQC6
Q9NX20 Q96DV4
Q9NX20 Q9NVS2
Q9NX20 P49406
Q9NX20 Q8N983
Q9NX20 Q96EL3
Q9NX20 Q8N5N7
Q9NX20 Q9Y6G3
Q9NX20 Q6P1L8
Q9NX20 Q7Z7F7
Q9NX20 Q9P0M9
Q9NX20 Q9NRX2
Q9NX20 Q8TCC3
Q9NX20 Q9BYD2
Q9NX20 Q96A35
Q9BZE1 Q9P015
Q9BZE1 Q9BYC8
Q9BZE1 Q9BQ48
Q9BZE1 Q8TAE8
Q9BZE1 Q8IXM3
Q9BZE1 Q86TS9
Q9BZE1 Q7Z2W9
Q9BZE1 Q9BYD6
Q9BZE1 URS000080E36F
Q9BZE1 Q9NYK5
Q9BZE1 Q9H0U6
Q9BZE1 P52815
Q9BZE1 Q16540
Q9BZE1 Q9BYC9
Q9BZE1 Q9H9J2
Q9BZE1 Q9NQ50
Q9BZE1 Q9NP92
Q9BZE1 Q9BRJ2
Q9BZE1 Q7Z7H8
Q9BZE1 P09001
Q9BZE1 Q9BYD3
Q9BZE1 Q13405
Q9BZE1 Q9P0J6
Q9BZE1 Q9Y3B7
Q9BZE1 Q9NWU5
Q9BZE1 Q9NZE8
Q9BZE1 Q9HD33
Q9BZE1 Q6P161
Q9BZE1 Q14197
Q9BZE1 Q4U2R6
Q9BZE1 Q9H2W6
Q9BZE1 URS000047A7F4
Q9BZE1 Q96GC5
Q9BZE1 Q13084
Q9BZE1 Q9BQC6
Q9BZE1 Q96DV4
Q9BZE1 Q9NVS2
Q9BZE1 P49406
Q9BZE1 Q8N983
Q9BZE1 Q96EL3
Q9BZE1 Q8N5N7
Q9BZE1 Q9Y6G3
Q9BZE1 Q6P1L8
Q9BZE1 Q7Z7F7
Q9BZE1 Q9P0M9
Q9BZE1 Q9NRX2
Q9BZE1 Q8TCC3
Q9BZE1 Q9BYD2
Q9BZE1 Q96A35
Q9P015 Q9BYC8
Q9P015 Q9BQ48
Q9P015 Q8TAE8
Q9P015 Q8IXM3
Q9P015 Q86TS9
Q9P015 Q7Z2W9
Q9P015 Q9BYD6
Q9P015 URS000080E36F
Q9P015 Q9NYK5
Q9P015 Q9H0U6
Q9P015 P52815
Q9P015 Q16540
Q9P015 Q9BYC9
Q9P015 Q9H9J2
Q9P015 Q9NQ50
Q9P015 Q9NP92
Q9P015 Q9BRJ2
Q9P015 Q7Z7H8
Q9P015 P09001
Q9P015 Q9BYD3
Q9P015 Q13405
Q9P015 Q9P0J6
Q9P015 Q9Y3B7
Q9P015 Q9NWU5
Q9P015 Q9NZE8
Q9P015 Q9HD33
Q9P015 Q6P161
Q9P015 Q14197
Q9P015 Q4U2R6
Q9P015 Q9H2W6
Q9P015 URS000047A7F4
Q9P015 Q96GC5
Q9P015 Q13084
Q9P015 Q9BQC6
Q9P015 Q96DV4
Q9P015 Q9NVS2
Q9P015 P49406
Q9P015 Q8N983
Q9P015 Q96EL3
Q9P015 Q8N5N7
Q9P015 Q9Y6G3
Q9P015 Q6P1L8
Q9P015 Q7Z7F7
Q9P015 Q9P0M9
Q9P015 Q9NRX2
Q9P015 Q8TCC3
Q9P015 Q9BYD2
Q9P015 Q96A35
Q9BYC8 Q9BQ48
Q9BYC8 Q8TAE8
Q9BYC8 Q8IXM3
Q9BYC8 Q86TS9
Q9BYC8 Q7Z2W9
Q9BYC8 Q9BYD6
Q9BYC8 URS000080E36F
Q9BYC8 Q9NYK5
Q9BYC8 Q9H0U6
Q9BYC8 P52815
Q9BYC8 Q16540
Q9BYC8 Q9BYC9
Q9BYC8 Q9H9J2
Q9BYC8 Q9NQ50
Q9BYC8 Q9NP92
Q9BYC8 Q9BRJ2
Q9BYC8 Q7Z7H8
Q9BYC8 P09001
Q9BYC8 Q9BYD3
Q9BYC8 Q13405
Q9BYC8 Q9P0J6
Q9BYC8 Q9Y3B7
Q9BYC8 Q9NWU5
Q9BYC8 Q9NZE8
Q9BYC8 Q9HD33
Q9BYC8 Q6P161
Q9BYC8 Q14197
Q9BYC8 Q4U2R6
Q9BYC8 Q9H2W6
Q9BYC8 URS000047A7F4
Q9BYC8 Q96GC5
Q9BYC8 Q13084
Q9BYC8 Q9BQC6
Q9BYC8 Q96DV4
Q9BYC8 Q9NVS2
Q9BYC8 P49406
Q9BYC8 Q8N983
Q9BYC8 Q96EL3
Q9BYC8 Q8N5N7
Q9BYC8 Q9Y6G3
Q9BYC8 Q6P1L8
Q9BYC8 Q7Z7F7
Q9BYC8 Q9P0M9
Q9BYC8 Q9NRX2
Q9BYC8 Q8TCC3
Q9BYC8 Q9BYD2
Q9BYC8 Q96A35
Q9BQ48 Q8TAE8
Q9BQ48 Q8IXM3
Q9BQ48 Q86TS9
Q9BQ48 Q7Z2W9
Q9BQ48 Q9BYD6
Q9BQ48 URS000080E36F
Q9BQ48 Q9NYK5
Q9BQ48 Q9H0U6
Q9BQ48 P52815
Q9BQ48 Q16540
Q9BQ48 Q9BYC9
Q9BQ48 Q9H9J2
Q9BQ48 Q9NQ50
Q9BQ48 Q9NP92
Q9BQ48 Q9BRJ2
Q9BQ48 Q7Z7H8
Q9BQ48 P09001
Q9BQ48 Q9BYD3
Q9BQ48 Q13405
Q9BQ48 Q9P0J6
Q9BQ48 Q9Y3B7
Q9BQ48 Q9NWU5
Q9BQ48 Q9NZE8
Q9BQ48 Q9HD33
Q9BQ48 Q6P161
Q9BQ48 Q14197
Q9BQ48 Q4U2R6
Q9BQ48 Q9H2W6
Q9BQ48 URS000047A7F4
Q9BQ48 Q96GC5
Q9BQ48 Q13084
Q9BQ48 Q9BQC6
Q9BQ48 Q96DV4
Q9BQ48 Q9NVS2
Q9BQ48 P49406
Q9BQ48 Q8N983
Q9BQ48 Q96EL3
Q9BQ48 Q8N5N7
Q9BQ48 Q9Y6G3
Q9BQ48 Q6P1L8
Q9BQ48 Q7Z7F7
Q9BQ48 Q9P0M9
Q9BQ48 Q9NRX2
Q9BQ48 Q8TCC3
Q9BQ48 Q9BYD2
Q9BQ48 Q96A35
Q8TAE8 Q8IXM3
Q8TAE8 Q86TS9
Q8TAE8 Q7Z2W9
Q8TAE8 Q9BYD6
Q8TAE8 URS000080E36F
Q8TAE8 Q9NYK5
Q8TAE8 Q9H0U6
Q8TAE8 P52815
Q8TAE8 Q16540
Q8TAE8 Q9BYC9
Q8TAE8 Q9H9J2
Q8TAE8 Q9NQ50
Q8TAE8 Q9NP92
Q8TAE8 Q9BRJ2
Q8TAE8 Q7Z7H8
Q8TAE8 P09001
Q8TAE8 Q9BYD3
Q8TAE8 Q13405
Q8TAE8 Q9P0J6
Q8TAE8 Q9Y3B7
Q8TAE8 Q9NWU5
Q8TAE8 Q9NZE8
Q8TAE8 Q9HD33
Q8TAE8 Q6P161
Q8TAE8 Q14197
Q8TAE8 Q4U2R6
Q8TAE8 Q9H2W6
Q8TAE8 URS000047A7F4
Q8TAE8 Q96GC5
Q8TAE8 Q13084
Q8TAE8 Q9BQC6
Q8TAE8 Q96DV4
Q8TAE8 Q9NVS2
Q8TAE8 P49406
Q8TAE8 Q8N983
Q8TAE8 Q96EL3
Q8TAE8 Q8N5N7
Q8TAE8 Q9Y6G3
Q8TAE8 Q6P1L8
Q8TAE8 Q7Z7F7
Q8TAE8 Q9P0M9
Q8TAE8 Q9NRX2
Q8TAE8 Q8TCC3
Q8TAE8 Q9BYD2
Q8TAE8 Q96A35
Q8IXM3 Q86TS9
Q8IXM3 Q7Z2W9
Q8IXM3 Q9BYD6
Q8IXM3 URS000080E36F
Q8IXM3 Q9NYK5
Q8IXM3 Q9H0U6
Q8IXM3 P52815
Q8IXM3 Q16540
Q8IXM3 Q9BYC9
Q8IXM3 Q9H9J2
Q8IXM3 Q9NQ50
Q8IXM3 Q9NP92
Q8IXM3 Q9BRJ2
Q8IXM3 Q7Z7H8
Q8IXM3 P09001
Q8IXM3 Q9BYD3
Q8IXM3 Q13405
Q8IXM3 Q9P0J6
Q8IXM3 Q9Y3B7
Q8IXM3 Q9NWU5
Q8IXM3 Q9NZE8
Q8IXM3 Q9HD33
Q8IXM3 Q6P161
Q8IXM3 Q14197
Q8IXM3 Q4U2R6
Q8IXM3 Q9H2W6
Q8IXM3 URS000047A7F4
Q8IXM3 Q96GC5
Q8IXM3 Q13084
Q8IXM3 Q9BQC6
Q8IXM3 Q96DV4
Q8IXM3 Q9NVS2
Q8IXM3 P49406
Q8IXM3 Q8N983
Q8IXM3 Q96EL3
Q8IXM3 Q8N5N7
Q8IXM3 Q9Y6G3
Q8IXM3 Q6P1L8
Q8IXM3 Q7Z7F7
Q8IXM3 Q9P0M9
Q8IXM3 Q9NRX2
Q8IXM3 Q8TCC3
Q8IXM3 Q9BYD2
Q8IXM3 Q96A35
Q86TS9 Q7Z2W9
Q86TS9 Q9BYD6
Q86TS9 URS000080E36F
Q86TS9 Q9NYK5
Q86TS9 Q9H0U6
Q86TS9 P52815
Q86TS9 Q16540
Q86TS9 Q9BYC9
Q86TS9 Q9H9J2
Q86TS9 Q9NQ50
Q86TS9 Q9NP92
Q86TS9 Q9BRJ2
Q86TS9 Q7Z7H8
Q86TS9 P09001
Q86TS9 Q9BYD3
Q86TS9 Q13405
Q86TS9 Q9P0J6
Q86TS9 Q9Y3B7
Q86TS9 Q9NWU5
Q86TS9 Q9NZE8
Q86TS9 Q9HD33
Q86TS9 Q6P161
Q86TS9 Q14197
Q86TS9 Q4U2R6
Q86TS9 Q9H2W6
Q86TS9 URS000047A7F4
Q86TS9 Q96GC5
Q86TS9 Q13084
Q86TS9 Q9BQC6
Q86TS9 Q96DV4
Q86TS9 Q9NVS2
Q86TS9 P49406
Q86TS9 Q8N983
Q86TS9 Q96EL3
Q86TS9 Q8N5N7
Q86TS9 Q9Y6G3
Q86TS9 Q6P1L8
Q86TS9 Q7Z7F7
Q86TS9 Q9P0M9
Q86TS9 Q9NRX2
Q86TS9 Q8TCC3
Q86TS9 Q9BYD2
Q86TS9 Q96A35
Q7Z2W9 Q9BYD6
Q7Z2W9 URS000080E36F
Q7Z2W9 Q9NYK5
Q7Z2W9 Q9H0U6
Q7Z2W9 P52815
Q7Z2W9 Q16540
Q7Z2W9 Q9BYC9
Q7Z2W9 Q9H9J2
Q7Z2W9 Q9NQ50
Q7Z2W9 Q9NP92
Q7Z2W9 Q9BRJ2
Q7Z2W9 Q7Z7H8
Q7Z2W9 P09001
Q7Z2W9 Q9BYD3
Q7Z2W9 Q13405
Q7Z2W9 Q9P0J6
Q7Z2W9 Q9Y3B7
Q7Z2W9 Q9NWU5
Q7Z2W9 Q9NZE8
Q7Z2W9 Q9HD33
Q7Z2W9 Q6P161
Q7Z2W9 Q14197
Q7Z2W9 Q4U2R6
Q7Z2W9 Q9H2W6
Q7Z2W9 URS000047A7F4
Q7Z2W9 Q96GC5
Q7Z2W9 Q13084
Q7Z2W9 Q9BQC6
Q7Z2W9 Q96DV4
Q7Z2W9 Q9NVS2
Q7Z2W9 P49406
Q7Z2W9 Q8N983
Q7Z2W9 Q96EL3
Q7Z2W9 Q8N5N7
Q7Z2W9 Q9Y6G3
Q7Z2W9 Q6P1L8
Q7Z2W9 Q7Z7F7
Q7Z2W9 Q9P0M9
Q7Z2W9 Q9NRX2
Q7Z2W9 Q8TCC3
Q7Z2W9 Q9BYD2
Q7Z2W9 Q96A35
Q9BYD6 URS000080E36F
Q9BYD6 Q9NYK5
Q9BYD6 Q9H0U6
Q9BYD6 P52815
Q9BYD6 Q16540
Q9BYD6 Q9BYC9
Q9BYD6 Q9H9J2
Q9BYD6 Q9NQ50
Q9BYD6 Q9NP92
Q9BYD6 Q9BRJ2
Q9BYD6 Q7Z7H8
Q9BYD6 P09001
Q9BYD6 Q9BYD3
Q9BYD6 Q13405
Q9BYD6 Q9P0J6
Q9BYD6 Q9Y3B7
Q9BYD6 Q9NWU5
Q9BYD6 Q9NZE8
Q9BYD6 Q9HD33
Q9BYD6 Q6P161
Q9BYD6 Q14197
Q9BYD6 Q4U2R6
Q9BYD6 Q9H2W6
Q9BYD6 URS000047A7F4
Q9BYD6 Q96GC5
Q9BYD6 Q13084
Q9BYD6 Q9BQC6
Q9BYD6 Q96DV4
Q9BYD6 Q9NVS2
Q9BYD6 P49406
Q9BYD6 Q8N983
Q9BYD6 Q96EL3
Q9BYD6 Q8N5N7
Q9BYD6 Q9Y6G3
Q9BYD6 Q6P1L8
Q9BYD6 Q7Z7F7
Q9BYD6 Q9P0M9
Q9BYD6 Q9NRX2
Q9BYD6 Q8TCC3
Q9BYD6 Q9BYD2
Q9BYD6 Q96A35
URS000080E36F Q9NYK5
URS000080E36F Q9H0U6
URS000080E36F P52815
URS000080E36F Q16540
URS000080E36F Q9BYC9
URS000080E36F Q9H9J2
URS000080E36F Q9NQ50
URS000080E36F Q9NP92
URS000080E36F Q9BRJ2
URS000080E36F Q7Z7H8
URS000080E36F P09001
URS000080E36F Q9BYD3
URS000080E36F Q13405
URS000080E36F Q9P0J6
URS000080E36F Q9Y3B7
URS000080E36F Q9NWU5
URS000080E36F Q9NZE8
URS000080E36F Q9HD33
URS000080E36F Q6P161
URS000080E36F Q14197
URS000080E36F Q4U2R6
URS000080E36F Q9H2W6
URS000080E36F URS000047A7F4
URS000080E36F Q96GC5
URS000080E36F Q13084
URS000080E36F Q9BQC6
URS000080E36F Q96DV4
URS000080E36F Q9NVS2
URS000080E36F P49406
URS000080E36F Q8N983
URS000080E36F Q96EL3
URS000080E36F Q8N5N7
URS000080E36F Q9Y6G3
URS000080E36F Q6P1L8
URS000080E36F Q7Z7F7
URS000080E36F Q9P0M9
URS000080E36F Q9NRX2
URS000080E36F Q8TCC3
URS000080E36F Q9BYD2
URS000080E36F Q96A35
Q9NYK5 Q9H0U6
Q9NYK5 P52815
Q9NYK5 Q16540
Q9NYK5 Q9BYC9
Q9NYK5 Q9H9J2
Q9NYK5 Q9NQ50
Q9NYK5 Q9NP92
Q9NYK5 Q9BRJ2
Q9NYK5 Q7Z7H8
Q9NYK5 P09001
Q9NYK5 Q9BYD3
Q9NYK5 Q13405
Q9NYK5 Q9P0J6
Q9NYK5 Q9Y3B7
Q9NYK5 Q9NWU5
Q9NYK5 Q9NZE8
Q9NYK5 Q9HD33
Q9NYK5 Q6P161
Q9NYK5 Q14197
Q9NYK5 Q4U2R6
Q9NYK5 Q9H2W6
Q9NYK5 URS000047A7F4
Q9NYK5 Q96GC5
Q9NYK5 Q13084
Q9NYK5 Q9BQC6
Q9NYK5 Q96DV4
Q9NYK5 Q9NVS2
Q9NYK5 P49406
Q9NYK5 Q8N983
Q9NYK5 Q96EL3
Q9NYK5 Q8N5N7
Q9NYK5 Q9Y6G3
Q9NYK5 Q6P1L8
Q9NYK5 Q7Z7F7
Q9NYK5 Q9P0M9
Q9NYK5 Q9NRX2
Q9NYK5 Q8TCC3
Q9NYK5 Q9BYD2
Q9NYK5 Q96A35
Q9H0U6 P52815
Q9H0U6 Q16540
Q9H0U6 Q9BYC9
Q9H0U6 Q9H9J2
Q9H0U6 Q9NQ50
Q9H0U6 Q9NP92
Q9H0U6 Q9BRJ2
Q9H0U6 Q7Z7H8
Q9H0U6 P09001
Q9H0U6 Q9BYD3
Q9H0U6 Q13405
Q9H0U6 Q9P0J6
Q9H0U6 Q9Y3B7
Q9H0U6 Q9NWU5
Q9H0U6 Q9NZE8
Q9H0U6 Q9HD33
Q9H0U6 Q6P161
Q9H0U6 Q14197
Q9H0U6 Q4U2R6
Q9H0U6 Q9H2W6
Q9H0U6 URS000047A7F4
Q9H0U6 Q96GC5
Q9H0U6 Q13084
Q9H0U6 Q9BQC6
Q9H0U6 Q96DV4
Q9H0U6 Q9NVS2
Q9H0U6 P49406
Q9H0U6 Q8N983
Q9H0U6 Q96EL3
Q9H0U6 Q8N5N7
Q9H0U6 Q9Y6G3
Q9H0U6 Q6P1L8
Q9H0U6 Q7Z7F7
Q9H0U6 Q9P0M9
Q9H0U6 Q9NRX2
Q9H0U6 Q8TCC3
Q9H0U6 Q9BYD2
Q9H0U6 Q96A35
P52815 Q16540
P52815 Q9BYC9
P52815 Q9H9J2
P52815 Q9NQ50
P52815 Q9NP92
P52815 Q9BRJ2
P52815 Q7Z7H8
P52815 P09001
P52815 Q9BYD3
P52815 Q13405
P52815 Q9P0J6
P52815 Q9Y3B7
P52815 Q9NWU5
P52815 Q9NZE8
P52815 Q9HD33
P52815 Q6P161
P52815 Q14197
P52815 Q4U2R6
P52815 Q9H2W6
P52815 URS000047A7F4
P52815 Q96GC5
P52815 Q13084
P52815 Q9BQC6
P52815 Q96DV4
P52815 Q9NVS2
P52815 P49406
P52815 Q8N983
P52815 Q96EL3
P52815 Q8N5N7
P52815 Q9Y6G3
P52815 Q6P1L8
P52815 Q7Z7F7
P52815 Q9P0M9
P52815 Q9NRX2
P52815 Q8TCC3
P52815 Q9BYD2
P52815 Q96A35
Q16540 Q9BYC9
Q16540 Q9H9J2
Q16540 Q9NQ50
Q16540 Q9NP92
Q16540 Q9BRJ2
Q16540 Q7Z7H8
Q16540 P09001
Q16540 Q9BYD3
Q16540 Q13405
Q16540 Q9P0J6
Q16540 Q9Y3B7
Q16540 Q9NWU5
Q16540 Q9NZE8
Q16540 Q9HD33
Q16540 Q6P161
Q16540 Q14197
Q16540 Q4U2R6
Q16540 Q9H2W6
Q16540 URS000047A7F4
Q16540 Q96GC5
Q16540 Q13084
Q16540 Q9BQC6
Q16540 Q96DV4
Q16540 Q9NVS2
Q16540 P49406
Q16540 Q8N983
Q16540 Q96EL3
Q16540 Q8N5N7
Q16540 Q9Y6G3
Q16540 Q6P1L8
Q16540 Q7Z7F7
Q16540 Q9P0M9
Q16540 Q9NRX2
Q16540 Q8TCC3
Q16540 Q9BYD2
Q16540 Q96A35
Q9BYC9 Q9H9J2
Q9BYC9 Q9NQ50
Q9BYC9 Q9NP92
Q9BYC9 Q9BRJ2
Q9BYC9 Q7Z7H8
Q9BYC9 P09001
Q9BYC9 Q9BYD3
Q9BYC9 Q13405
Q9BYC9 Q9P0J6
Q9BYC9 Q9Y3B7
Q9BYC9 Q9NWU5
Q9BYC9 Q9NZE8
Q9BYC9 Q9HD33
Q9BYC9 Q6P161
Q9BYC9 Q14197
Q9BYC9 Q4U2R6
Q9BYC9 Q9H2W6
Q9BYC9 URS000047A7F4
Q9BYC9 Q96GC5
Q9BYC9 Q13084
Q9BYC9 Q9BQC6
Q9BYC9 Q96DV4
Q9BYC9 Q9NVS2
Q9BYC9 P49406
Q9BYC9 Q8N983
Q9BYC9 Q96EL3
Q9BYC9 Q8N5N7
Q9BYC9 Q9Y6G3
Q9BYC9 Q6P1L8
Q9BYC9 Q7Z7F7
Q9BYC9 Q9P0M9
Q9BYC9 Q9NRX2
Q9BYC9 Q8TCC3
Q9BYC9 Q9BYD2
Q9BYC9 Q96A35
Q9H9J2 Q9NQ50
Q9H9J2 Q9NP92
Q9H9J2 Q9BRJ2
Q9H9J2 Q7Z7H8
Q9H9J2 P09001
Q9H9J2 Q9BYD3
Q9H9J2 Q13405
Q9H9J2 Q9P0J6
Q9H9J2 Q9Y3B7
Q9H9J2 Q9NWU5
Q9H9J2 Q9NZE8
Q9H9J2 Q9HD33
Q9H9J2 Q6P161
Q9H9J2 Q14197
Q9H9J2 Q4U2R6
Q9H9J2 Q9H2W6
Q9H9J2 URS000047A7F4
Q9H9J2 Q96GC5
Q9H9J2 Q13084
Q9H9J2 Q9BQC6
Q9H9J2 Q96DV4
Q9H9J2 Q9NVS2
Q9H9J2 P49406
Q9H9J2 Q8N983
Q9H9J2 Q96EL3
Q9H9J2 Q8N5N7
Q9H9J2 Q9Y6G3
Q9H9J2 Q6P1L8
Q9H9J2 Q7Z7F7
Q9H9J2 Q9P0M9
Q9H9J2 Q9NRX2
Q9H9J2 Q8TCC3
Q9H9J2 Q9BYD2
Q9H9J2 Q96A35
Q9NQ50 Q9NP92
Q9NQ50 Q9BRJ2
Q9NQ50 Q7Z7H8
Q9NQ50 P09001
Q9NQ50 Q9BYD3
Q9NQ50 Q13405
Q9NQ50 Q9P0J6
Q9NQ50 Q9Y3B7
Q9NQ50 Q9NWU5
Q9NQ50 Q9NZE8
Q9NQ50 Q9HD33
Q9NQ50 Q6P161
Q9NQ50 Q14197
Q9NQ50 Q4U2R6
Q9NQ50 Q9H2W6
Q9NQ50 URS000047A7F4
Q9NQ50 Q96GC5
Q9NQ50 Q13084
Q9NQ50 Q9BQC6
Q9NQ50 Q96DV4
Q9NQ50 Q9NVS2
Q9NQ50 P49406
Q9NQ50 Q8N983
Q9NQ50 Q96EL3
Q9NQ50 Q8N5N7
Q9NQ50 Q9Y6G3
Q9NQ50 Q6P1L8
Q9NQ50 Q7Z7F7
Q9NQ50 Q9P0M9
Q9NQ50 Q9NRX2
Q9NQ50 Q8TCC3
Q9NQ50 Q9BYD2
Q9NQ50 Q96A35
Q9NP92 Q9BRJ2
Q9NP92 Q7Z7H8
Q9NP92 P09001
Q9NP92 Q9BYD3
Q9NP92 Q13405
Q9NP92 Q9P0J6
Q9NP92 Q9Y3B7
Q9NP92 Q9NWU5
Q9NP92 Q9NZE8
Q9NP92 Q9HD33
Q9NP92 Q6P161
Q9NP92 Q14197
Q9NP92 Q4U2R6
Q9NP92 Q9H2W6
Q9NP92 URS000047A7F4
Q9NP92 Q96GC5
Q9NP92 Q13084
Q9NP92 Q9BQC6
Q9NP92 Q96DV4
Q9NP92 Q9NVS2
Q9NP92 P49406
Q9NP92 Q8N983
Q9NP92 Q96EL3
Q9NP92 Q8N5N7
Q9NP92 Q9Y6G3
Q9NP92 Q6P1L8
Q9NP92 Q7Z7F7
Q9NP92 Q9P0M9
Q9NP92 Q9NRX2
Q9NP92 Q8TCC3
Q9NP92 Q9BYD2
Q9NP92 Q96A35
Q9BRJ2 Q7Z7H8
Q9BRJ2 P09001
Q9BRJ2 Q9BYD3
Q9BRJ2 Q13405
Q9BRJ2 Q9P0J6
Q9BRJ2 Q9Y3B7
Q9BRJ2 Q9NWU5
Q9BRJ2 Q9NZE8
Q9BRJ2 Q9HD33
Q9BRJ2 Q6P161
Q9BRJ2 Q14197
Q9BRJ2 Q4U2R6
Q9BRJ2 Q9H2W6
Q9BRJ2 URS000047A7F4
Q9BRJ2 Q96GC5
Q9BRJ2 Q13084
Q9BRJ2 Q9BQC6
Q9BRJ2 Q96DV4
Q9BRJ2 Q9NVS2
Q9BRJ2 P49406
Q9BRJ2 Q8N983
Q9BRJ2 Q96EL3
Q9BRJ2 Q8N5N7
Q9BRJ2 Q9Y6G3
Q9BRJ2 Q6P1L8
Q9BRJ2 Q7Z7F7
Q9BRJ2 Q9P0M9
Q9BRJ2 Q9NRX2
Q9BRJ2 Q8TCC3
Q9BRJ2 Q9BYD2
Q9BRJ2 Q96A35
Q7Z7H8 P09001
Q7Z7H8 Q9BYD3
Q7Z7H8 Q13405
Q7Z7H8 Q9P0J6
Q7Z7H8 Q9Y3B7
Q7Z7H8 Q9NWU5
Q7Z7H8 Q9NZE8
Q7Z7H8 Q9HD33
Q7Z7H8 Q6P161
Q7Z7H8 Q14197
Q7Z7H8 Q4U2R6
Q7Z7H8 Q9H2W6
Q7Z7H8 URS000047A7F4
Q7Z7H8 Q96GC5
Q7Z7H8 Q13084
Q7Z7H8 Q9BQC6
Q7Z7H8 Q96DV4
Q7Z7H8 Q9NVS2
Q7Z7H8 P49406
Q7Z7H8 Q8N983
Q7Z7H8 Q96EL3
Q7Z7H8 Q8N5N7
Q7Z7H8 Q9Y6G3
Q7Z7H8 Q6P1L8
Q7Z7H8 Q7Z7F7
Q7Z7H8 Q9P0M9
Q7Z7H8 Q9NRX2
Q7Z7H8 Q8TCC3
Q7Z7H8 Q9BYD2
Q7Z7H8 Q96A35
P09001 Q9BYD3
P09001 Q13405
P09001 Q9P0J6
P09001 Q9Y3B7
P09001 Q9NWU5
P09001 Q9NZE8
P09001 Q9HD33
P09001 Q6P161
P09001 Q14197
P09001 Q4U2R6
P09001 Q9H2W6
P09001 URS000047A7F4
P09001 Q96GC5
P09001 Q13084
P09001 Q9BQC6
P09001 Q96DV4
P09001 Q9NVS2
P09001 P49406
P09001 Q8N983
P09001 Q96EL3
P09001 Q8N5N7
P09001 Q9Y6G3
P09001 Q6P1L8
P09001 Q7Z7F7
P09001 Q9P0M9
P09001 Q9NRX2
P09001 Q8TCC3
P09001 Q9BYD2
P09001 Q96A35
Q9BYD3 Q13405
Q9BYD3 Q9P0J6
Q9BYD3 Q9Y3B7
Q9BYD3 Q9NWU5
Q9BYD3 Q9NZE8
Q9BYD3 Q9HD33
Q9BYD3 Q6P161
Q9BYD3 Q14197
Q9BYD3 Q4U2R6
Q9BYD3 Q9H2W6
Q9BYD3 URS000047A7F4
Q9BYD3 Q96GC5
Q9BYD3 Q13084
Q9BYD3 Q9BQC6
Q9BYD3 Q96DV4
Q9BYD3 Q9NVS2
Q9BYD3 P49406
Q9BYD3 Q8N983
Q9BYD3 Q96EL3
Q9BYD3 Q8N5N7
Q9BYD3 Q9Y6G3
Q9BYD3 Q6P1L8
Q9BYD3 Q7Z7F7
Q9BYD3 Q9P0M9
Q9BYD3 Q9NRX2
Q9BYD3 Q8TCC3
Q9BYD3 Q9BYD2
Q9BYD3 Q96A35
Q13405 Q9P0J6
Q13405 Q9Y3B7
Q13405 Q9NWU5
Q13405 Q9NZE8
Q13405 Q9HD33
Q13405 Q6P161
Q13405 Q14197
Q13405 Q4U2R6
Q13405 Q9H2W6
Q13405 URS000047A7F4
Q13405 Q96GC5
Q13405 Q13084
Q13405 Q9BQC6
Q13405 Q96DV4
Q13405 Q9NVS2
Q13405 P49406
Q13405 Q8N983
Q13405 Q96EL3
Q13405 Q8N5N7
Q13405 Q9Y6G3
Q13405 Q6P1L8
Q13405 Q7Z7F7
Q13405 Q9P0M9
Q13405 Q9NRX2
Q13405 Q8TCC3
Q13405 Q9BYD2
Q13405 Q96A35
Q9P0J6 Q9Y3B7
Q9P0J6 Q9NWU5
Q9P0J6 Q9NZE8
Q9P0J6 Q9HD33
Q9P0J6 Q6P161
Q9P0J6 Q14197
Q9P0J6 Q4U2R6
Q9P0J6 Q9H2W6
Q9P0J6 URS000047A7F4
Q9P0J6 Q96GC5
Q9P0J6 Q13084
Q9P0J6 Q9BQC6
Q9P0J6 Q96DV4
Q9P0J6 Q9NVS2
Q9P0J6 P49406
Q9P0J6 Q8N983
Q9P0J6 Q96EL3
Q9P0J6 Q8N5N7
Q9P0J6 Q9Y6G3
Q9P0J6 Q6P1L8
Q9P0J6 Q7Z7F7
Q9P0J6 Q9P0M9
Q9P0J6 Q9NRX2
Q9P0J6 Q8TCC3
Q9P0J6 Q9BYD2
Q9P0J6 Q96A35
Q9Y3B7 Q9NWU5
Q9Y3B7 Q9NZE8
Q9Y3B7 Q9HD33
Q9Y3B7 Q6P161
Q9Y3B7 Q14197
Q9Y3B7 Q4U2R6
Q9Y3B7 Q9H2W6
Q9Y3B7 URS000047A7F4
Q9Y3B7 Q96GC5
Q9Y3B7 Q13084
Q9Y3B7 Q9BQC6
Q9Y3B7 Q96DV4
Q9Y3B7 Q9NVS2
Q9Y3B7 P49406
Q9Y3B7 Q8N983
Q9Y3B7 Q96EL3
Q9Y3B7 Q8N5N7
Q9Y3B7 Q9Y6G3
Q9Y3B7 Q6P1L8
Q9Y3B7 Q7Z7F7
Q9Y3B7 Q9P0M9
Q9Y3B7 Q9NRX2
Q9Y3B7 Q8TCC3
Q9Y3B7 Q9BYD2
Q9Y3B7 Q96A35
Q9NWU5 Q9NZE8
Q9NWU5 Q9HD33
Q9NWU5 Q6P161
Q9NWU5 Q14197
Q9NWU5 Q4U2R6
Q9NWU5 Q9H2W6
Q9NWU5 URS000047A7F4
Q9NWU5 Q96GC5
Q9NWU5 Q13084
Q9NWU5 Q9BQC6
Q9NWU5 Q96DV4
Q9NWU5 Q9NVS2
Q9NWU5 P49406
Q9NWU5 Q8N983
Q9NWU5 Q96EL3
Q9NWU5 Q8N5N7
Q9NWU5 Q9Y6G3
Q9NWU5 Q6P1L8
Q9NWU5 Q7Z7F7
Q9NWU5 Q9P0M9
Q9NWU5 Q9NRX2
Q9NWU5 Q8TCC3
Q9NWU5 Q9BYD2
Q9NWU5 Q96A35
Q9NZE8 Q9HD33
Q9NZE8 Q6P161
Q9NZE8 Q14197
Q9NZE8 Q4U2R6
Q9NZE8 Q9H2W6
Q9NZE8 URS000047A7F4
Q9NZE8 Q96GC5
Q9NZE8 Q13084
Q9NZE8 Q9BQC6
Q9NZE8 Q96DV4
Q9NZE8 Q9NVS2
Q9NZE8 P49406
Q9NZE8 Q8N983
Q9NZE8 Q96EL3
Q9NZE8 Q8N5N7
Q9NZE8 Q9Y6G3
Q9NZE8 Q6P1L8
Q9NZE8 Q7Z7F7
Q9NZE8 Q9P0M9
Q9NZE8 Q9NRX2
Q9NZE8 Q8TCC3
Q9NZE8 Q9BYD2
Q9NZE8 Q96A35
Q9HD33 Q6P161
Q9HD33 Q14197
Q9HD33 Q4U2R6
Q9HD33 Q9H2W6
Q9HD33 URS000047A7F4
Q9HD33 Q96GC5
Q9HD33 Q13084
Q9HD33 Q9BQC6
Q9HD33 Q96DV4
Q9HD33 Q9NVS2
Q9HD33 P49406
Q9HD33 Q8N983
Q9HD33 Q96EL3
Q9HD33 Q8N5N7
Q9HD33 Q9Y6G3
Q9HD33 Q6P1L8
Q9HD33 Q7Z7F7
Q9HD33 Q9P0M9
Q9HD33 Q9NRX2
Q9HD33 Q8TCC3
Q9HD33 Q9BYD2
Q9HD33 Q96A35
Q6P161 Q14197
Q6P161 Q4U2R6
Q6P161 Q9H2W6
Q6P161 URS000047A7F4
Q6P161 Q96GC5
Q6P161 Q13084
Q6P161 Q9BQC6
Q6P161 Q96DV4
Q6P161 Q9NVS2
Q6P161 P49406
Q6P161 Q8N983
Q6P161 Q96EL3
Q6P161 Q8N5N7
Q6P161 Q9Y6G3
Q6P161 Q6P1L8
Q6P161 Q7Z7F7
Q6P161 Q9P0M9
Q6P161 Q9NRX2
Q6P161 Q8TCC3
Q6P161 Q9BYD2
Q6P161 Q96A35
Q14197 Q4U2R6
Q14197 Q9H2W6
Q14197 URS000047A7F4
Q14197 Q96GC5
Q14197 Q13084
Q14197 Q9BQC6
Q14197 Q96DV4
Q14197 Q9NVS2
Q14197 P49406
Q14197 Q8N983
Q14197 Q96EL3
Q14197 Q8N5N7
Q14197 Q9Y6G3
Q14197 Q6P1L8
Q14197 Q7Z7F7
Q14197 Q9P0M9
Q14197 Q9NRX2
Q14197 Q8TCC3
Q14197 Q9BYD2
Q14197 Q96A35
Q4U2R6 Q9H2W6
Q4U2R6 URS000047A7F4
Q4U2R6 Q96GC5
Q4U2R6 Q13084
Q4U2R6 Q9BQC6
Q4U2R6 Q96DV4
Q4U2R6 Q9NVS2
Q4U2R6 P49406
Q4U2R6 Q8N983
Q4U2R6 Q96EL3
Q4U2R6 Q8N5N7
Q4U2R6 Q9Y6G3
Q4U2R6 Q6P1L8
Q4U2R6 Q7Z7F7
Q4U2R6 Q9P0M9
Q4U2R6 Q9NRX2
Q4U2R6 Q8TCC3
Q4U2R6 Q9BYD2
Q4U2R6 Q96A35
Q9H2W6 URS000047A7F4
Q9H2W6 Q96GC5
Q9H2W6 Q13084
Q9H2W6 Q9BQC6
Q9H2W6 Q96DV4
Q9H2W6 Q9NVS2
Q9H2W6 P49406
Q9H2W6 Q8N983
Q9H2W6 Q96EL3
Q9H2W6 Q8N5N7
Q9H2W6 Q9Y6G3
Q9H2W6 Q6P1L8
Q9H2W6 Q7Z7F7
Q9H2W6 Q9P0M9
Q9H2W6 Q9NRX2
Q9H2W6 Q8TCC3
Q9H2W6 Q9BYD2
Q9H2W6 Q96A35
URS000047A7F4 Q96GC5
URS000047A7F4 Q13084
URS000047A7F4 Q9BQC6
URS000047A7F4 Q96DV4
URS000047A7F4 Q9NVS2
URS000047A7F4 P49406
URS000047A7F4 Q8N983
URS000047A7F4 Q96EL3
URS000047A7F4 Q8N5N7
URS000047A7F4 Q9Y6G3
URS000047A7F4 Q6P1L8
URS000047A7F4 Q7Z7F7
URS000047A7F4 Q9P0M9
URS000047A7F4 Q9NRX2
URS000047A7F4 Q8TCC3
URS000047A7F4 Q9BYD2
URS000047A7F4 Q96A35
Q96GC5 Q13084
Q96GC5 Q9BQC6
Q96GC5 Q96DV4
Q96GC5 Q9NVS2
Q96GC5 P49406
Q96GC5 Q8N983
Q96GC5 Q96EL3
Q96GC5 Q8N5N7
Q96GC5 Q9Y6G3
Q96GC5 Q6P1L8
Q96GC5 Q7Z7F7
Q96GC5 Q9P0M9
Q96GC5 Q9NRX2
Q96GC5 Q8TCC3
Q96GC5 Q9BYD2
Q96GC5 Q96A35
Q13084 Q9BQC6
Q13084 Q96DV4
Q13084 Q9NVS2
Q13084 P49406
Q13084 Q8N983
Q13084 Q96EL3
Q13084 Q8N5N7
Q13084 Q9Y6G3
Q13084 Q6P1L8
Q13084 Q7Z7F7
Q13084 Q9P0M9
Q13084 Q9NRX2
Q13084 Q8TCC3
Q13084 Q9BYD2
Q13084 Q96A35
Q9BQC6 Q96DV4
Q9BQC6 Q9NVS2
Q9BQC6 P49406
Q9BQC6 Q8N983
Q9BQC6 Q96EL3
Q9BQC6 Q8N5N7
Q9BQC6 Q9Y6G3
Q9BQC6 Q6P1L8
Q9BQC6 Q7Z7F7
Q9BQC6 Q9P0M9
Q9BQC6 Q9NRX2
Q9BQC6 Q8TCC3
Q9BQC6 Q9BYD2
Q9BQC6 Q96A35
Q96DV4 Q9NVS2
Q96DV4 P49406
Q96DV4 Q8N983
Q96DV4 Q96EL3
Q96DV4 Q8N5N7
Q96DV4 Q9Y6G3
Q96DV4 Q6P1L8
Q96DV4 Q7Z7F7
Q96DV4 Q9P0M9
Q96DV4 Q9NRX2
Q96DV4 Q8TCC3
Q96DV4 Q9BYD2
Q96DV4 Q96A35
Q9NVS2 P49406
Q9NVS2 Q8N983
Q9NVS2 Q96EL3
Q9NVS2 Q8N5N7
Q9NVS2 Q9Y6G3
Q9NVS2 Q6P1L8
Q9NVS2 Q7Z7F7
Q9NVS2 Q9P0M9
Q9NVS2 Q9NRX2
Q9NVS2 Q8TCC3
Q9NVS2 Q9BYD2
Q9NVS2 Q96A35
P49406 Q8N983
P49406 Q96EL3
P49406 Q8N5N7
P49406 Q9Y6G3
P49406 Q6P1L8
P49406 Q7Z7F7
P49406 Q9P0M9
P49406 Q9NRX2
P49406 Q8TCC3
P49406 Q9BYD2
P49406 Q96A35
Q8N983 Q96EL3
Q8N983 Q8N5N7
Q8N983 Q9Y6G3
Q8N983 Q6P1L8
Q8N983 Q7Z7F7
Q8N983 Q9P0M9
Q8N983 Q9NRX2
Q8N983 Q8TCC3
Q8N983 Q9BYD2
Q8N983 Q96A35
Q96EL3 Q8N5N7
Q96EL3 Q9Y6G3
Q96EL3 Q6P1L8
Q96EL3 Q7Z7F7
Q96EL3 Q9P0M9
Q96EL3 Q9NRX2
Q96EL3 Q8TCC3
Q96EL3 Q9BYD2
Q96EL3 Q96A35
Q8N5N7 Q9Y6G3
Q8N5N7 Q6P1L8
Q8N5N7 Q7Z7F7
Q8N5N7 Q9P0M9
Q8N5N7 Q9NRX2
Q8N5N7 Q8TCC3
Q8N5N7 Q9BYD2
Q8N5N7 Q96A35
Q9Y6G3 Q6P1L8
Q9Y6G3 Q7Z7F7
Q9Y6G3 Q9P0M9
Q9Y6G3 Q9NRX2
Q9Y6G3 Q8TCC3
Q9Y6G3 Q9BYD2
Q9Y6G3 Q96A35
Q6P1L8 Q7Z7F7
Q6P1L8 Q9P0M9
Q6P1L8 Q9NRX2
Q6P1L8 Q8TCC3
Q6P1L8 Q9BYD2
Q6P1L8 Q96A35
Q7Z7F7 Q9P0M9
Q7Z7F7 Q9NRX2
Q7Z7F7 Q8TCC3
Q7Z7F7 Q9BYD2
Q7Z7F7 Q96A35
Q9P0M9 Q9NRX2
Q9P0M9 Q8TCC3
Q9P0M9 Q9BYD2
Q9P0M9 Q96A35
Q9NRX2 Q8TCC3
Q9NRX2 Q9BYD2
Q9NRX2 Q96A35
Q8TCC3 Q9BYD2
Q8TCC3 Q96A35
Q9BYD2 Q96A35
0000005909 P00751
0000005909 0000027547
P00751 0000027547
Q9UM00 Q9BUV8
Q9Y478 P54619
Q9Y478 Q13131
Q9Y478 Q9UGJ0
Q9Y478 P54646
Q9Y478 Q9UGI9
P54619 Q13131
P54619 P54646
P54619 O43741
Q13131 Q9UGJ0
Q13131 O43741
Q13131 Q9UGI9
Q04637 Q14240
Q04637 P06730
Q04637 P60842
Q14240 P06730
Q14240 O43432
P06730 P60842
P06730 O43432
P06730 Q7L576
P06730 Q06787
P60842 O43432
Q8IX90 Q96BD8
Q8IX90 Q8WVK7
Q96BD8 Q8WVK7
Q6P1K2 Q9H410
Q6P1K2 Q9H081
Q6P1K2 Q96IY1
Q9H410 Q9H081
Q9H410 Q96IY1
Q9H081 Q96IY1
O95229 Q8NG31
Q8N2Z9 Q13352
Q8N2Z9 Q71F23
Q8N2Z9 Q7L2Z9
Q8N2Z9 A8MT69
Q8N2Z9 Q92674
Q8N2Z9 Q96BT3
Q8N2Z9 Q9BS16
Q8N2Z9 Q6IPU0
Q8N2Z9 Q5EE01
Q8N2Z9 Q8N0S6
Q8N2Z9 Q9BU64
Q8N2Z9 Q9NSP4
Q8N2Z9 Q9H3R5
Q8N2Z9 Q96H22
Q8N2Z9 Q03188
Q8N2Z9 Q8IYD8
Q8N2Z9 Q9BTP7
Q13352 Q71F23
Q13352 Q7L2Z9
Q13352 A8MT69
Q13352 Q92674
Q13352 Q96BT3
Q13352 Q9BS16
Q13352 Q6IPU0
Q13352 Q5EE01
Q13352 Q8N0S6
Q13352 Q9BU64
Q13352 Q9NSP4
Q13352 Q9H3R5
Q13352 Q96H22
Q13352 Q03188
Q71F23 Q7L2Z9
Q71F23 A8MT69
Q71F23 Q92674
Q71F23 Q96BT3
Q71F23 Q9BS16
Q71F23 Q6IPU0
Q71F23 Q5EE01
Q71F23 Q8N0S6
Q71F23 Q9BU64
Q71F23 Q9NSP4
Q71F23 Q9H3R5
Q71F23 Q96H22
Q71F23 Q03188
Q7L2Z9 A8MT69
Q7L2Z9 Q92674
Q7L2Z9 Q96BT3
Q7L2Z9 Q9BS16
Q7L2Z9 Q6IPU0
Q7L2Z9 Q5EE01
Q7L2Z9 Q8N0S6
Q7L2Z9 Q9BU64
Q7L2Z9 Q9NSP4
Q7L2Z9 Q9H3R5
Q7L2Z9 Q96H22
Q7L2Z9 Q03188
A8MT69 Q92674
A8MT69 Q96BT3
A8MT69 Q9BS16
A8MT69 Q6IPU0
A8MT69 Q5EE01
A8MT69 Q8N0S6
A8MT69 Q9BU64
A8MT69 Q9NSP4
A8MT69 Q9H3R5
A8MT69 Q96H22
A8MT69 Q03188
A8MT69 Q8IYD8
A8MT69 Q9BTP7
Q92674 Q96BT3
Q92674 Q9BS16
Q92674 Q6IPU0
Q92674 Q5EE01
Q92674 Q8N0S6
Q92674 Q9BU64
Q92674 Q9NSP4
Q92674 Q9H3R5
Q92674 Q96H22
Q92674 Q03188
Q96BT3 Q9BS16
Q96BT3 Q6IPU0
Q96BT3 Q5EE01
Q96BT3 Q8N0S6
Q96BT3 Q9BU64
Q96BT3 Q9NSP4
Q96BT3 Q9H3R5
Q96BT3 Q96H22
Q96BT3 Q03188
Q9BS16 Q6IPU0
Q9BS16 Q5EE01
Q9BS16 Q8N0S6
Q9BS16 Q9BU64
Q9BS16 Q9NSP4
Q9BS16 Q9H3R5
Q9BS16 Q96H22
Q9BS16 Q03188
Q6IPU0 Q5EE01
Q6IPU0 Q8N0S6
Q6IPU0 Q9BU64
Q6IPU0 Q9NSP4
Q6IPU0 Q9H3R5
Q6IPU0 Q96H22
Q6IPU0 Q03188
Q5EE01 Q8N0S6
Q5EE01 Q9BU64
Q5EE01 Q9NSP4
Q5EE01 Q9H3R5
Q5EE01 Q96H22
Q5EE01 Q03188
Q8N0S6 Q9BU64
Q8N0S6 Q9NSP4
Q8N0S6 Q9H3R5
Q8N0S6 Q96H22
Q8N0S6 Q03188
Q9BU64 Q9NSP4
Q9BU64 Q9H3R5
Q9BU64 Q96H22
Q9BU64 Q03188
Q9NSP4 Q9H3R5
Q9NSP4 Q96H22
Q9NSP4 Q03188
Q9H3R5 Q96H22
Q9H3R5 Q03188
Q96H22 Q03188
P62805 P04908
P62805 P06899
P62805 P49450
P62805 Q71DI3
P62805 P0C0S5
P62805 P68431
P62805 Q71UI9
P62805 P0C0S8
P62805 P62807
P62805 Q93077
P62805 O60814
P62805 Q16695
P04908 P06899
P04908 P49450
P04908 Q71DI3
P04908 P68431
P04908 O60814
P04908 Q16695
P06899 P49450
P06899 Q71DI3
P06899 P0C0S5
P06899 P68431
P06899 Q71UI9
P06899 P0C0S8
P06899 Q16695
P05783 P05787
P13645 P04264
O43790 O76013
Q9NSB4 Q6KB66
Q7Z3Z0 Q3SY84
P0C0S5 P68431
P68431 Q71UI9
P68431 P0C0S8
P68431 P62807
P68431 Q93077
P68431 O60814
P06681 P0C0L4
P06681 0000005970
P06681 0000005966
P06681 0000005972
P06681 0000027612
P06681 0000042699
P06681 0000042706
P06681 P0C0L5
P06681 0000042703
P0C0L4 0000005970
P0C0L4 0000005966
P0C0L4 0000005972
P0C0L4 0000027612
0000005970 0000005966
0000005970 0000005972
0000005970 0000027612
0000005966 0000005972
0000005966 0000027612
0000005972 0000027612
0000027612 0000042699
0000027612 0000042706
0000027612 P0C0L5
0000027612 0000042703
P08648 P05556
P05556 P26006
P05556 P56199
P05556 P17301
P05556 P13612
P05556 P23229
P05556 Q13683
P05556 P53708
P05556 Q13797
P05556 O75578
P05556 Q9UKX5
P05556 P06756
P06756 P05106
P06756 P18084
P06756 P18564
P06756 P26012
P05106 P08514
P05106 P26006
P35232 Q99623
Q9BXJ7 O60494
Q9UGJ0 P54646
Q9UGJ0 O43741
P54646 O43741
P54646 Q9UGI9
O43741 Q9UGI9
Q9UMS4 Q9P013
Q9UMS4 P11142
Q9UMS4 O75934
Q9UMS4 Q99459
Q9UMS4 O43660
Q9UMS4 Q8WYA6
Q9UMS4 Q9HCG8
Q9UMS4 Q9UNP9
Q9UMS4 P08579
Q9UMS4 Q15427
Q9UMS4 Q13435
Q9UMS4 Q8WUA2
Q9UMS4 Q15428
Q9UMS4 O75643
Q9UMS4 Q9HCS7
Q9UMS4 P14678
Q9UMS4 P62314
Q9UMS4 P62318
Q9UMS4 Q15029
Q9UMS4 URS00006767A8
Q9UMS4 Q6P2Q9
Q9UMS4 P62304
Q9UMS4 P62306
Q9UMS4 P41223
Q9UMS4 139356
Q9UMS4 Q13573
Q9UMS4 Q9UQ35
Q9UMS4 Q9NW64
Q9UMS4 P62308
Q9UMS4 Q15393
Q9UMS4 Q9BWJ5
Q9UMS4 Q9Y3C6
Q9UMS4 URS000075BAAE
Q9UMS4 URS00006A1489
Q9UMS4 Q13356
Q9UMS4 Q15459
Q9UMS4 O15541
Q9UMS4 O60306
Q9UMS4 P09661
Q9UMS4 O60508
Q9UMS4 O60231
Q9UMS4 P62316
Q9UMS4 Q9BZJ0
Q9UMS4 Q7RTV0
Q9UMS4 Q96DI7
Q9UMS4 Q12874
Q9UMS4 O95926
Q9UMS4 Q96BP3
Q9UMS4 Q9BW85
Q9UMS4 Q9NXE8
Q9UMS4 Q9NW82
Q9UMS4 Q14331
Q9UMS4 Q86X95
Q9UMS4 Q9ULR0
Q9UMS4 Q92620
Q9UMS4 Q14562
Q9UMS4 Q9GZU8
Q9UMS4 P61326
Q9UMS4 Q9Y421
Q9UMS4 Q8WUQ7
Q9UMS4 O95391
Q9UMS4 Q9H875
Q9UMS4 Q8N5F7
Q9UMS4 Q2TBE0
Q9UMS4 O43143
Q9P013 P11142
Q9P013 O75934
Q9P013 Q99459
Q9P013 O43660
Q9P013 Q8WYA6
Q9P013 Q8IYB3
Q9P013 Q9UNP9
Q9P013 P08579
Q9P013 Q15427
Q9P013 Q13435
Q9P013 Q15428
Q9P013 O75643
Q9P013 Q9HCS7
Q9P013 P14678
Q9P013 P62314
Q9P013 P62318
Q9P013 Q15029
Q9P013 URS00006767A8
Q9P013 Q6P2Q9
Q9P013 P62304
Q9P013 P62306
Q9P013 P41223
Q9P013 139356
Q9P013 Q13573
Q9P013 Q9NW64
Q9P013 P62308
Q9P013 Q15393
Q9P013 Q9BWJ5
Q9P013 URS000075BAAE
Q9P013 URS00006A1489
Q9P013 Q13356
Q9P013 Q15459
Q9P013 O60306
Q9P013 P09661
Q9P013 P62316
Q9P013 Q9BZJ0
Q9P013 Q7RTV0
Q9P013 Q9Y3B4
Q9P013 Q96DI7
Q9P013 O60870
Q9P013 Q12874
Q9P013 Q9HCG8
Q9P013 Q6UX04
Q9P013 Q9UQ35
Q9P013 O15541
Q9P013 Q8WUA2
Q9P013 Q9Y3C6
Q9P013 O60231
Q9P013 O60508
Q9P013 O95926
Q9P013 Q96BP3
Q9P013 Q9BW85
Q9P013 Q9NXE8
Q9P013 Q9NW82
Q9P013 Q14331
Q9P013 Q86X95
Q9P013 Q9ULR0
Q9P013 Q92620
Q9P013 Q14562
Q9P013 Q9GZU8
Q9P013 P61326
Q9P013 Q9Y421
Q9P013 Q8WUQ7
Q9P013 O95391
Q9P013 Q9H875
Q9P013 Q8N5F7
Q9P013 Q2TBE0
Q9P013 O43143
P11142 O75934
P11142 Q99459
P11142 O43660
P11142 Q8WYA6
O75934 Q99459
O75934 O43660
O75934 Q8WYA6
O75934 Q9HCG8
O75934 Q9UNP9
O75934 P08579
O75934 Q15427
O75934 Q13435
O75934 Q8WUA2
O75934 Q15428
O75934 O75643
O75934 Q9HCS7
O75934 P14678
O75934 P62314
O75934 P62318
O75934 Q15029
O75934 URS00006767A8
O75934 Q6P2Q9
O75934 P62304
O75934 P62306
O75934 P41223
O75934 139356
O75934 Q13573
O75934 Q9UQ35
O75934 Q9NW64
O75934 P62308
O75934 Q15393
O75934 Q9BWJ5
O75934 Q9Y3C6
O75934 URS000075BAAE
O75934 URS00006A1489
O75934 Q13356
O75934 Q15459
O75934 O15541
O75934 O60306
O75934 P09661
O75934 O60508
O75934 O60231
O75934 P62316
O75934 Q9BZJ0
O75934 Q7RTV0
O75934 Q96DI7
O75934 Q12874
O75934 O95926
O75934 Q96BP3
O75934 Q9BW85
O75934 Q9NXE8
O75934 Q9NW82
O75934 Q14331
O75934 Q86X95
O75934 Q9ULR0
O75934 Q92620
O75934 Q14562
O75934 Q9GZU8
O75934 P61326
O75934 Q9Y421
O75934 Q8WUQ7
O75934 O95391
O75934 Q9H875
O75934 Q8N5F7
O75934 Q2TBE0
O75934 O43143
Q99459 O43660
Q99459 Q8WYA6
Q99459 Q8IYB3
Q99459 Q9UNP9
Q99459 P08579
Q99459 Q15427
Q99459 Q13435
Q99459 Q15428
Q99459 O75643
Q99459 Q9HCS7
Q99459 P14678
Q99459 P62314
Q99459 P62318
Q99459 Q15029
Q99459 URS00006767A8
Q99459 Q6P2Q9
Q99459 P62304
Q99459 P62306
Q99459 P41223
Q99459 139356
Q99459 Q13573
Q99459 Q9NW64
Q99459 P62308
Q99459 Q15393
Q99459 Q9BWJ5
Q99459 URS000075BAAE
Q99459 URS00006A1489
Q99459 Q13356
Q99459 Q15459
Q99459 O60306
Q99459 P09661
Q99459 P62316
Q99459 Q9BZJ0
Q99459 Q7RTV0
Q99459 Q9Y3B4
Q99459 Q96DI7
Q99459 O60870
Q99459 Q12874
Q99459 Q9HCG8
Q99459 Q6UX04
Q99459 Q9UQ35
Q99459 O15541
Q99459 Q8WUA2
Q99459 Q9Y3C6
Q99459 O60231
Q99459 O60508
Q99459 O95926
Q99459 Q96BP3
Q99459 Q9BW85
Q99459 Q9NXE8
Q99459 Q9NW82
Q99459 Q14331
Q99459 Q86X95
Q99459 Q9ULR0
Q99459 Q92620
Q99459 Q14562
Q99459 Q9GZU8
Q99459 P61326
Q99459 Q9Y421
Q99459 Q8WUQ7
Q99459 O95391
Q99459 Q9H875
Q99459 Q8N5F7
Q99459 Q2TBE0
Q99459 O43143
O43660 Q8WYA6
O43660 Q8IYB3
O43660 Q9UNP9
O43660 P08579
O43660 Q15427
O43660 Q13435
O43660 Q15428
O43660 O75643
O43660 Q9HCS7
O43660 P14678
O43660 P62314
O43660 P62318
O43660 Q15029
O43660 URS00006767A8
O43660 Q6P2Q9
O43660 P62304
O43660 P62306
O43660 P41223
O43660 139356
O43660 Q13573
O43660 Q9NW64
O43660 P62308
O43660 Q15393
O43660 Q9BWJ5
O43660 URS000075BAAE
O43660 URS00006A1489
O43660 Q13356
O43660 Q15459
O43660 O60306
O43660 P09661
O43660 P62316
O43660 Q9BZJ0
O43660 Q7RTV0
O43660 Q9Y3B4
O43660 Q96DI7
O43660 O60870
O43660 Q12874
O43660 Q9HCG8
O43660 Q6UX04
O43660 Q9UQ35
O43660 O15541
O43660 Q8WUA2
O43660 Q9Y3C6
O43660 O60231
O43660 O60508
O43660 O95926
O43660 Q96BP3
O43660 Q9BW85
O43660 Q9NXE8
O43660 Q9NW82
O43660 Q14331
O43660 Q86X95
O43660 Q9ULR0
O43660 Q92620
O43660 Q14562
O43660 Q9GZU8
O43660 P61326
O43660 Q9Y421
O43660 Q8WUQ7
O43660 O95391
O43660 Q9H875
O43660 Q8N5F7
O43660 Q2TBE0
O43660 O43143
0000030311 P19838
0000030311 Q04206
0000030311 Q04864
0000030311 Q01201
0000030311 0000030322
0000030311 Q00653
P19838 Q04206
P19838 Q04864
P19838 Q01201
P19838 0000030322
P19838 Q00653
Q04206 Q00653
Q04206 0000030322
Q04206 Q04864
Q00653 0000030322
Q00653 Q04864
Q00653 Q01201
0000030322 Q04864
0000030322 Q01201
Q9P0I2 Q5J8M3
Q9P0I2 Q15006
Q9P0I2 Q8N766
Q9P0I2 Q9NPA0
Q9P0I2 Q9BV81
Q9P0I2 Q8N4V1
Q9P0I2 O43402
Q9P0I2 Q5UCC4
Q9P0I2 Q9Y3B6
Q5J8M3 Q15006
Q5J8M3 Q8N766
Q5J8M3 Q9NPA0
Q5J8M3 Q9BV81
Q5J8M3 Q8N4V1
Q5J8M3 O43402
Q5J8M3 Q5UCC4
Q5J8M3 Q9Y3B6
Q15006 Q8N766
Q15006 Q9NPA0
Q15006 Q9BV81
Q15006 Q8N4V1
Q15006 O43402
Q15006 Q5UCC4
Q15006 Q9Y3B6
Q8N766 Q9NPA0
Q8N766 Q9BV81
Q8N766 Q8N4V1
Q8N766 O43402
Q8N766 Q5UCC4
Q8N766 Q9Y3B6
Q9NPA0 Q9BV81
Q9NPA0 Q8N4V1
Q9NPA0 O43402
Q9NPA0 Q5UCC4
Q9NPA0 Q9Y3B6
Q9BV81 Q8N4V1
Q9BV81 O43402
Q9BV81 Q5UCC4
Q9BV81 Q9Y3B6
Q8N4V1 O43402
Q8N4V1 Q5UCC4
Q8N4V1 Q9Y3B6
O43402 Q5UCC4
Q5UCC4 Q9Y3B6
Q9C005 Q9Y5Z7
Q9C005 Q15291
Q9C005 Q9UBL3
Q9C005 Q03164
Q9C005 Q9UMN6
Q9C005 Q6ZW49
Q9C005 Q8NEZ4
Q9C005 Q14686
Q9C005 O15550
Q9C005 Q9BTK6
Q9C005 O14686
Q9C005 Q9P0U4
Q9C005 O15047
Q9C005 Q6UXN9
Q9C005 Q96IK1
Q9C005 Q8NFC6
Q9C005 Q9UPS6
Q9Y5Z7 Q15291
Q9Y5Z7 Q9UBL3
Q9Y5Z7 Q03164
Q9Y5Z7 Q9UMN6
Q9Y5Z7 Q9P0U4
Q9Y5Z7 O15047
Q9Y5Z7 Q6UXN9
Q9Y5Z7 Q96IK1
Q9Y5Z7 Q8NFC6
Q9Y5Z7 Q9UPS6
Q15291 Q9UBL3
Q15291 Q03164
Q15291 Q9UMN6
Q15291 Q6ZW49
Q15291 Q8NEZ4
Q15291 Q14686
Q15291 O15550
Q15291 Q9BTK6
Q15291 O14686
Q15291 Q9P0U4
Q15291 O15047
Q15291 Q6UXN9
Q15291 Q96IK1
Q15291 Q8NFC6
Q15291 Q9UPS6
Q9UBL3 Q03164
Q9UBL3 Q9UMN6
Q9UBL3 Q6ZW49
Q9UBL3 Q8NEZ4
Q9UBL3 Q14686
Q9UBL3 O15550
Q9UBL3 Q9BTK6
Q9UBL3 O14686
Q9UBL3 Q9P0U4
Q9UBL3 O15047
Q9UBL3 Q6UXN9
Q9UBL3 Q96IK1
Q9UBL3 Q8NFC6
Q9UBL3 Q9UPS6
Q13241 P26717
Q13241 Q07444
Q13241 P26715
P13612 P26010
P23229 P16144
P26010 P38570
P05107 P20701
P05107 P11215
P05107 P20702
P05107 Q13349
Q9H4I9 Q8IYU8
Q9H4I9 Q9BPX6
Q9H4I9 Q8NE86
Q9H4I9 Q86XE3
Q9H4I9 Q9NWR8
Q8IYU8 Q9BPX6
Q8IYU8 Q8NE86
Q8IYU8 Q9NWR8
Q9BPX6 Q8NE86
Q9BPX6 Q86XE3
Q9BPX6 Q9NWR8
Q8NE86 Q86XE3
Q8NE86 Q9NWR8
P27986 P42336
P27986 P42338
P27986 O00329
P42336 O00459
P42336 Q92569
P42338 O00459
P42338 Q92569
O00459 O00329
Q92569 O00329
Q8WYR1 P48736
P48736 Q5UE93
Q14683 Q9UQE7
Q14683 Q8WVM7
Q14683 O60216
Q14683 Q8N3U4
Q9UQE7 Q8WVM7
Q9UQE7 O60216
Q9UQE7 Q8N3U4
Q9UQE7 Q9UJ98
Q9UQE7 Q8NDV3
Q9UQE7 Q9H4I0
Q9UQE7 O95072
Q8WVM7 O60216
O60216 Q8N3U4
O60216 Q9UJ98
O60216 Q8NDV3
Q8WV22 Q96MG7
Q8WV22 Q9BQI6
Q8WV22 Q8IX21
Q8WV22 Q8N140
Q8WV22 Q96SB8
Q8WV22 Q8IY18
Q8WV22 Q96MF7
Q8WV22 Q9NXX6
Q96MG7 Q9BQI6
Q96MG7 Q8IX21
Q96MG7 Q8N140
Q96MG7 Q96SB8
Q96MG7 Q8IY18
Q96MG7 Q96MF7
Q96MG7 Q9NXX6
Q9BQI6 Q8IX21
Q9BQI6 Q8N140
Q9BQI6 Q96SB8
Q9BQI6 Q8IY18
Q9BQI6 Q96MF7
Q9BQI6 Q9NXX6
Q8IX21 Q8N140
Q8IX21 Q96SB8
Q8IX21 Q8IY18
Q8IX21 Q96MF7
Q8IX21 Q9NXX6
Q8N140 Q96SB8
Q8N140 Q8IY18
Q8N140 Q96MF7
Q96SB8 Q8IY18
Q96SB8 Q96MF7
Q96SB8 Q9NXX6
Q8IY18 Q96MF7
Q8IY18 Q9NXX6
Q96MF7 Q9NXX6
O43242 O00231
O43242 P60900
O43242 P55036
O43242 P62333
O43242 P62195
O43242 Q13200
O43242 Q9UNM6
O43242 P25787
O43242 P49721
O43242 P62191
O43242 P25786
O43242 P35998
O43242 O00487
O43242 P25789
O43242 Q99460
O43242 P28074
O43242 P49720
O43242 P25788
O43242 P28070
O43242 P28072
O43242 P51665
O43242 Q16186
O43242 Q15008
O43242 O00232
O43242 P17980
O43242 P48556
O43242 O14818
O43242 Q99436
O43242 P60896
O43242 P20618
O43242 P28066
O43242 P43686
O43242 Q9UL46
O43242 Q06323
O43242 P61289
O00231 P60900
O00231 P55036
O00231 P62333
O00231 P62195
O00231 Q13200
O00231 Q9UNM6
O00231 P25787
O00231 P49721
O00231 P62191
O00231 P25786
O00231 P35998
O00231 O00487
O00231 P25789
O00231 Q99460
O00231 P28074
O00231 P49720
O00231 P25788
O00231 P28070
O00231 P28072
O00231 P51665
O00231 Q16186
O00231 Q15008
O00231 O00232
O00231 P17980
O00231 P48556
O00231 O14818
O00231 Q99436
O00231 P60896
O00231 P20618
O00231 P28066
O00231 P43686
O00231 Q9UL46
O00231 Q06323
O00231 P61289
P60900 P55036
P60900 P62333
P60900 P62195
P60900 Q13200
P60900 Q9UNM6
P60900 P25787
P60900 P49721
P60900 P62191
P60900 P25786
P60900 P35998
P60900 O00487
P60900 P25789
P60900 Q99460
P60900 P28074
P60900 P49720
P60900 P25788
P60900 P28070
P60900 P28072
P60900 P51665
P60900 Q16186
P60900 Q15008
P60900 O00232
P60900 P17980
P60900 P48556
P60900 O14818
P60900 Q99436
P60900 P60896
P60900 P20618
P60900 P28066
P60900 P43686
P60900 Q14997
P60900 Q06323
P60900 Q9UL46
P60900 P61289
P60900 P40306
P60900 P28062
P60900 P28065
P60900 A5LHX3
P60900 Q8TAA3
P55036 P62333
P55036 P62195
P55036 Q13200
P55036 Q9UNM6
P55036 P25787
P55036 P49721
P55036 P62191
P55036 P25786
P55036 P35998
P55036 O00487
P55036 P25789
P55036 Q99460
P55036 P28074
P55036 P49720
P55036 P25788
P55036 P28070
P55036 P28072
P55036 P51665
P55036 Q16186
P55036 Q15008
P55036 O00232
P55036 P17980
P55036 P48556
P55036 O14818
P55036 Q99436
P55036 P60896
P55036 P20618
P55036 P28066
P55036 P43686
P55036 Q9UL46
P55036 Q06323
P55036 P61289
P62333 P62195
P62333 Q13200
P62333 Q9UNM6
P62333 P25787
P62333 P49721
P62333 P62191
P62333 P25786
P62333 P35998
P62333 O00487
P62333 P25789
P62333 Q99460
P62333 P28074
P62333 P49720
P62333 P25788
P62333 P28070
P62333 P28072
P62333 P51665
P62333 Q16186
P62333 Q15008
P62333 O00232
P62333 P17980
P62333 P48556
P62333 O14818
P62333 Q99436
P62333 P60896
P62333 P20618
P62333 P28066
P62333 P43686
P62333 Q9UL46
P62333 Q06323
P62333 P61289
P62195 Q13200
P62195 Q9UNM6
P62195 P25787
P62195 P49721
P62195 P62191
P62195 P25786
P62195 P35998
P62195 O00487
P62195 P25789
P62195 Q99460
P62195 P28074
P62195 P49720
P62195 P25788
P62195 P28070
P62195 P28072
P62195 P51665
P62195 Q16186
P62195 Q15008
P62195 O00232
P62195 P17980
P62195 P48556
P62195 O14818
P62195 Q99436
P62195 P60896
P62195 P20618
P62195 P28066
P62195 P43686
P62195 Q9UL46
P62195 Q06323
P62195 P61289
Q13200 Q9UNM6
Q13200 P25787
Q13200 P49721
Q13200 P62191
Q13200 P25786
Q13200 P35998
Q13200 O00487
Q13200 P25789
Q13200 Q99460
Q13200 P28074
Q13200 P49720
Q13200 P25788
Q13200 P28070
Q13200 P28072
Q13200 P51665
Q13200 Q16186
Q13200 Q15008
Q13200 O00232
Q13200 P17980
Q13200 P48556
Q13200 O14818
Q13200 Q99436
Q13200 P60896
Q13200 P20618
Q13200 P28066
Q13200 P43686
Q13200 Q9UL46
Q13200 Q06323
Q13200 P61289
Q9UNM6 P25787
Q9UNM6 P49721
Q9UNM6 P62191
Q9UNM6 P25786
Q9UNM6 P35998
Q9UNM6 O00487
Q9UNM6 P25789
Q9UNM6 Q99460
Q9UNM6 P28074
Q9UNM6 P49720
Q9UNM6 P25788
Q9UNM6 P28070
Q9UNM6 P28072
Q9UNM6 P51665
Q9UNM6 Q16186
Q9UNM6 Q15008
Q9UNM6 O00232
Q9UNM6 P17980
Q9UNM6 P48556
Q9UNM6 O14818
Q9UNM6 Q99436
Q9UNM6 P60896
Q9UNM6 P20618
Q9UNM6 P28066
Q9UNM6 P43686
Q9UNM6 Q9UL46
Q9UNM6 Q06323
Q9UNM6 P61289
P25787 P49721
P25787 P62191
P25787 P25786
P25787 P35998
P25787 O00487
P25787 P25789
P25787 Q99460
P25787 P28074
P25787 P49720
P25787 P25788
P25787 P28070
P25787 P28072
P25787 P51665
P25787 Q16186
P25787 Q15008
P25787 O00232
P25787 P17980
P25787 P48556
P25787 O14818
P25787 Q99436
P25787 P60896
P25787 P20618
P25787 P28066
P25787 P43686
P25787 Q14997
P25787 Q06323
P25787 Q9UL46
P25787 P61289
P25787 P40306
P25787 P28062
P25787 P28065
P25787 A5LHX3
P25787 Q8TAA3
P49721 P62191
P49721 P25786
P49721 P35998
P49721 O00487
P49721 P25789
P49721 Q99460
P49721 P28074
P49721 P49720
P49721 P25788
P49721 P28070
P49721 P28072
P49721 P51665
P49721 Q16186
P49721 Q15008
P49721 O00232
P49721 P17980
P49721 P48556
P49721 O14818
P49721 Q99436
P49721 P60896
P49721 P20618
P49721 P28066
P49721 P43686
P49721 Q14997
P49721 Q06323
P49721 Q9UL46
P49721 P61289
P49721 P40306
P49721 P28062
P49721 P28065
P49721 A5LHX3
P49721 Q8TAA3
P62191 P25786
P62191 P35998
P62191 O00487
P62191 P25789
P62191 Q99460
P62191 P28074
P62191 P49720
P62191 P25788
P62191 P28070
P62191 P28072
P62191 P51665
P62191 Q16186
P62191 Q15008
P62191 O00232
P62191 P17980
P62191 P48556
P62191 O14818
P62191 Q99436
P62191 P60896
P62191 P20618
P62191 P28066
P62191 P43686
P62191 Q9UL46
P62191 Q06323
P62191 P61289
P25786 P35998
P25786 O00487
P25786 P25789
P25786 Q99460
P25786 P28074
P25786 P49720
P25786 P25788
P25786 P28070
P25786 P28072
P25786 P51665
P25786 Q16186
P25786 Q15008
P25786 O00232
P25786 P17980
P25786 P48556
P25786 O14818
P25786 Q99436
P25786 P60896
P25786 P20618
P25786 P28066
P25786 P43686
P25786 Q14997
P25786 Q06323
P25786 Q9UL46
P25786 P61289
P25786 P40306
P25786 P28062
P25786 P28065
P25786 A5LHX3
P25786 Q8TAA3
P35998 O00487
P35998 P25789
P35998 Q99460
P35998 P28074
P35998 P49720
P35998 P25788
P35998 P28070
P35998 P28072
P35998 P51665
P35998 Q16186
P35998 Q15008
P35998 O00232
P35998 P17980
P35998 P48556
P35998 O14818
P35998 Q99436
P35998 P60896
P35998 P20618
P35998 P28066
P35998 P43686
P35998 Q9UL46
P35998 Q06323
P35998 P61289
O00487 P25789
O00487 Q99460
O00487 P28074
O00487 P49720
O00487 P25788
O00487 P28070
O00487 P28072
O00487 P51665
O00487 Q16186
O00487 Q15008
O00487 O00232
O00487 P17980
O00487 P48556
O00487 O14818
O00487 Q99436
O00487 P60896
O00487 P20618
O00487 P28066
O00487 P43686
O00487 Q9UL46
O00487 Q06323
O00487 P61289
P25789 Q99460
P25789 P28074
P25789 P49720
P25789 P25788
P25789 P28070
P25789 P28072
P25789 P51665
P25789 Q16186
P25789 Q15008
P25789 O00232
P25789 P17980
P25789 P48556
P25789 O14818
P25789 Q99436
P25789 P60896
P25789 P20618
P25789 P28066
P25789 P43686
P25789 Q14997
P25789 Q06323
P25789 Q9UL46
P25789 P61289
P25789 P40306
P25789 P28062
P25789 P28065
P25789 A5LHX3
P25789 Q8TAA3
Q99460 P28074
Q99460 P49720
Q99460 P25788
Q99460 P28070
Q99460 P28072
Q99460 P51665
Q99460 Q16186
Q99460 Q15008
Q99460 O00232
Q99460 P17980
Q99460 P48556
Q99460 O14818
Q99460 Q99436
Q99460 P60896
Q99460 P20618
Q99460 P28066
Q99460 P43686
Q99460 Q9UL46
Q99460 Q06323
Q99460 P61289
P28074 P49720
P28074 P25788
P28074 P28070
P28074 P28072
P28074 P51665
P28074 Q16186
P28074 Q15008
P28074 O00232
P28074 P17980
P28074 P48556
P28074 O14818
P28074 Q99436
P28074 P60896
P28074 P20618
P28074 P28066
P28074 P43686
P28074 Q14997
P28074 Q06323
P28074 Q9UL46
P28074 P61289
P28074 Q8TAA3
P49720 P25788
P49720 P28070
P49720 P28072
P49720 P51665
P49720 Q16186
P49720 Q15008
P49720 O00232
P49720 P17980
P49720 P48556
P49720 O14818
P49720 Q99436
P49720 P60896
P49720 P20618
P49720 P28066
P49720 P43686
P49720 Q14997
P49720 Q06323
P49720 Q9UL46
P49720 P61289
P49720 P40306
P49720 P28062
P49720 P28065
P49720 A5LHX3
P49720 Q8TAA3
P25788 P28070
P25788 P28072
P25788 P51665
P25788 Q16186
P25788 Q15008
P25788 O00232
P25788 P17980
P25788 P48556
P25788 O14818
P25788 Q99436
P25788 P60896
P25788 P20618
P25788 P28066
P25788 P43686
P25788 Q14997
P25788 Q06323
P25788 Q9UL46
P25788 P61289
P25788 P40306
P25788 P28062
P25788 P28065
P25788 A5LHX3
P25788 Q8TAA3
P28070 P28072
P28070 P51665
P28070 Q16186
P28070 Q15008
P28070 O00232
P28070 P17980
P28070 P48556
P28070 O14818
P28070 Q99436
P28070 P60896
P28070 P20618
P28070 P28066
P28070 P43686
P28070 Q14997
P28070 Q06323
P28070 Q9UL46
P28070 P61289
P28070 P40306
P28070 P28062
P28070 P28065
P28070 A5LHX3
P28070 Q8TAA3
P28072 P51665
P28072 Q16186
P28072 Q15008
P28072 O00232
P28072 P17980
P28072 P48556
P28072 O14818
P28072 Q99436
P28072 P60896
P28072 P20618
P28072 P28066
P28072 P43686
P28072 Q14997
P28072 Q06323
P28072 Q9UL46
P28072 P61289
P28072 Q8TAA3
P51665 Q16186
P51665 Q15008
P51665 O00232
P51665 P17980
P51665 P48556
P51665 O14818
P51665 Q99436
P51665 P60896
P51665 P20618
P51665 P28066
P51665 P43686
P51665 Q9UL46
P51665 Q06323
P51665 P61289
Q16186 Q15008
Q16186 O00232
Q16186 P17980
Q16186 P48556
Q16186 O14818
Q16186 Q99436
Q16186 P60896
Q16186 P20618
Q16186 P28066
Q16186 P43686
Q16186 Q9UL46
Q16186 Q06323
Q16186 P61289
Q15008 O00232
Q15008 P17980
Q15008 P48556
Q15008 O14818
Q15008 Q99436
Q15008 P60896
Q15008 P20618
Q15008 P28066
Q15008 P43686
Q15008 Q9UL46
Q15008 Q06323
Q15008 P61289
O00232 P17980
O00232 P48556
O00232 O14818
O00232 Q99436
O00232 P60896
O00232 P20618
O00232 P28066
O00232 P43686
O00232 Q9UL46
O00232 Q06323
O00232 P61289
P17980 P48556
P17980 O14818
P17980 Q99436
P17980 P60896
P17980 P20618
P17980 P28066
P17980 P43686
P17980 Q9UL46
P17980 Q06323
P17980 P61289
P48556 O14818
P48556 Q99436
P48556 P60896
P48556 P20618
P48556 P28066
P48556 P43686
P48556 Q9UL46
P48556 Q06323
P48556 P61289
O14818 Q99436
O14818 P60896
O14818 P20618
O14818 P28066
O14818 P43686
O14818 Q14997
O14818 Q06323
O14818 Q9UL46
O14818 P61289
O14818 P40306
O14818 P28062
O14818 P28065
O14818 A5LHX3
Q99436 P60896
Q99436 P20618
Q99436 P28066
Q99436 P43686
Q99436 Q14997
Q99436 Q06323
Q99436 Q9UL46
Q99436 P61289
Q99436 Q8TAA3
P60896 P20618
P60896 P28066
P60896 P43686
P60896 Q5JVF3
P60896 O60318
P60896 O15182
P60896 Q9UL46
P60896 Q06323
P60896 P61289
P60896 P41208
P20618 P28066
P20618 P43686
P20618 Q14997
P20618 Q06323
P20618 Q9UL46
P20618 P61289
P20618 P40306
P20618 P28062
P20618 P28065
P20618 A5LHX3
P20618 Q8TAA3
P28066 P43686
P28066 Q14997
P28066 Q06323
P28066 Q9UL46
P28066 P61289
P28066 P40306
P28066 P28062
P28066 P28065
P28066 A5LHX3
P28066 Q8TAA3
P43686 Q9UL46
P43686 Q06323
P43686 P61289
P42224 P52630
P42224 Q00978
P42224 P40763
P42224 Q14765
P52630 Q00978
P52630 P42226
O43264 P50748
O43264 Q9H900
O43264 A2RRP1
O43264 Q6NUQ1
P50748 Q9H900
Q9UHD2 Q13114
Q9UHD2 Q86WV6
Q9UHD2 Q14164
Q9UHD2 Q9H6S1
Q9UHD2 Q92844
Q9UHD2 A7MCY6
Q13114 Q86WV6
Q13114 Q7Z434
P50990 P50991
P50990 P17987
P50990 P40227
P50990 Q99832
P50990 P49368
P50990 P48643
P50990 P78371
P50991 P17987
P50991 P40227
P50991 Q99832
P50991 P49368
P50991 P48643
P50991 P78371
P17987 P40227
P17987 Q99832
P17987 P49368
P17987 P48643
P17987 P78371
P40227 Q99832
P40227 P49368
P40227 P48643
P40227 P78371
Q99832 P49368
Q99832 P48643
Q99832 P78371
P49368 P48643
P49368 P78371
P48643 P78371
Q9NWZ8 Q8TEQ6
Q9NWZ8 Q16637
Q9NWZ8 Q9H840
Q9NWZ8 Q8WXD5
Q9NWZ8 P57678
Q9NWZ8 Q9Y3F4
Q9NWZ8 O14893
Q9NWZ8 Q9UHI6
Q8TEQ6 Q16637
Q8TEQ6 Q9H840
Q8TEQ6 Q8WXD5
Q8TEQ6 P57678
Q8TEQ6 Q9Y3F4
Q8TEQ6 O14893
Q8TEQ6 Q9UHI6
Q16637 Q9H840
Q16637 Q8WXD5
Q16637 P57678
Q16637 Q9Y3F4
Q16637 O14893
Q16637 Q9UHI6
Q9H840 Q8WXD5
Q9H840 P57678
Q9H840 Q9Y3F4
Q9H840 O14893
Q9H840 Q9UHI6
Q8WXD5 P57678
Q8WXD5 Q9Y3F4
Q8WXD5 O14893
Q8WXD5 Q9UHI6
P57678 Q9Y3F4
P57678 O14893
P57678 Q9UHI6
Q9Y3F4 O14893
Q9Y3F4 Q9UHI6
O14893 Q9UHI6
P62308 P62316
P62308 P62314
P62308 P14678
P62308 P62318
P62308 P62304
P62308 P62306
P62308 O43395
P62308 URS0000715A86
P62308 P55769
P62308 O43172
P62308 O95400
P62308 Q9BUQ8
P62308 O75643
P62308 O94906
P62308 URS000075BAAE
P62308 Q15029
P62308 Q96DI7
P62308 Q6P2Q9
P62308 Q8WWY3
P62308 Q53GS9
P62308 P62310
P62308 Q9BTD8
P62308 URS0000631BD4
P62308 URS00006767A8
P62308 Q9Y4Z0
P62308 Q8WVK2
P62308 Q9Y333
P62308 Q9UK45
P62308 P83876
P62308 O43290
P62308 P62312
P62308 Q9Y4Y9
P62308 O95777
P62308 P08579
P62308 Q15427
P62308 Q13435
P62308 M14387
P62308 Q15428
P62308 P09234
P62308 139356
P62308 P09012
P62308 Q15393
P62308 Q9BWJ5
P62308 P08621
P62308 URS00006A1489
P62308 Q15459
P62308 P09661
P62308 Q7RTV0
P62308 Q9Y3B4
P62308 Q12874
P62308 Q8IYB3
P62308 Q9UNP9
P62308 Q9HCS7
P62308 P41223
P62308 Q13573
P62308 Q9NW64
P62308 Q13356
P62308 O60306
P62308 Q9BZJ0
P62308 O60870
P62308 Q9HCG8
P62308 Q6UX04
P62308 Q9UQ35
P62308 O15541
P62308 Q8WUA2
P62308 Q9Y3C6
P62308 O60231
P62308 O60508
P62308 O95926
P62308 Q96BP3
P62308 Q9BW85
P62308 Q9NXE8
P62308 Q9NW82
P62308 Q14331
P62308 Q86X95
P62308 Q9ULR0
P62308 Q92620
P62308 Q14562
P62308 Q9GZU8
P62308 P61326
P62308 Q9Y421
P62308 Q8WUQ7
P62308 O95391
P62308 Q9H875
P62308 Q8N5F7
P62308 Q2TBE0
P62308 O43143
P62308 Q7L014
P62308 O43719
P62308 Q969L4
P62308 M17910
P62308 P83369
P62316 P62314
P62316 P14678
P62316 P62318
P62316 P62304
P62316 P62306
P62316 O43395
P62316 URS0000715A86
P62316 P55769
P62316 O43172
P62316 O95400
P62316 Q9BUQ8
P62316 O75643
P62316 O94906
P62316 URS000075BAAE
P62316 Q15029
P62316 Q96DI7
P62316 Q6P2Q9
P62316 Q8WWY3
P62316 Q53GS9
P62316 P62310
P62316 Q9BTD8
P62316 URS0000631BD4
P62316 URS00006767A8
P62316 Q9Y4Z0
P62316 Q8WVK2
P62316 Q9Y333
P62316 Q9UK45
P62316 P83876
P62316 O43290
P62316 P62312
P62316 Q9Y4Y9
P62316 O95777
P62316 P08579
P62316 Q15427
P62316 Q13435
P62316 M14387
P62316 Q15428
P62316 P09234
P62316 139356
P62316 P09012
P62316 Q15393
P62316 Q9BWJ5
P62316 P08621
P62316 URS00006A1489
P62316 Q15459
P62316 P09661
P62316 Q7RTV0
P62316 Q9Y3B4
P62316 Q12874
P62316 Q8IYB3
P62316 Q9UNP9
P62316 Q9HCS7
P62316 P41223
P62316 Q13573
P62316 Q9NW64
P62316 Q13356
P62316 O60306
P62316 Q9BZJ0
P62316 O60870
P62316 Q9HCG8
P62316 Q6UX04
P62316 Q9UQ35
P62316 O15541
P62316 Q8WUA2
P62316 Q9Y3C6
P62316 O60231
P62316 O60508
P62316 O95926
P62316 Q96BP3
P62316 Q9BW85
P62316 Q9NXE8
P62316 Q9NW82
P62316 Q14331
P62316 Q86X95
P62316 Q9ULR0
P62316 Q92620
P62316 Q14562
P62316 Q9GZU8
P62316 P61326
P62316 Q9Y421
P62316 Q8WUQ7
P62316 O95391
P62316 Q9H875
P62316 Q8N5F7
P62316 Q2TBE0
P62316 O43143
P62316 Q7L014
P62316 O43719
P62314 P14678
P62314 P62318
P62314 P62304
P62314 P62306
P62314 O43395
P62314 URS0000715A86
P62314 P55769
P62314 O43172
P62314 O95400
P62314 Q9BUQ8
P62314 O75643
P62314 O94906
P62314 URS000075BAAE
P62314 Q15029
P62314 Q96DI7
P62314 Q6P2Q9
P62314 Q8WWY3
P62314 Q53GS9
P62314 P62310
P62314 Q9BTD8
P62314 URS0000631BD4
P62314 URS00006767A8
P62314 Q9Y4Z0
P62314 Q8WVK2
P62314 Q9Y333
P62314 Q9UK45
P62314 P83876
P62314 O43290
P62314 P62312
P62314 Q9Y4Y9
P62314 O95777
P62314 P08579
P62314 Q15427
P62314 Q13435
P62314 M14387
P62314 Q15428
P62314 P09234
P62314 139356
P62314 P09012
P62314 Q15393
P62314 Q9BWJ5
P62314 P08621
P62314 URS00006A1489
P62314 Q15459
P62314 P09661
P62314 Q7RTV0
P62314 Q9Y3B4
P62314 Q12874
P62314 Q8IYB3
P62314 Q9UNP9
P62314 Q9HCS7
P62314 P41223
P62314 Q13573
P62314 Q9NW64
P62314 Q13356
P62314 O60306
P62314 Q9BZJ0
P62314 O60870
P62314 Q9HCG8
P62314 Q6UX04
P62314 Q9UQ35
P62314 O15541
P62314 Q8WUA2
P62314 Q9Y3C6
P62314 O60231
P62314 O60508
P62314 O95926
P62314 Q96BP3
P62314 Q9BW85
P62314 Q9NXE8
P62314 Q9NW82
P62314 Q14331
P62314 Q86X95
P62314 Q9ULR0
P62314 Q92620
P62314 Q14562
P62314 Q9GZU8
P62314 P61326
P62314 Q9Y421
P62314 Q8WUQ7
P62314 O95391
P62314 Q9H875
P62314 Q8N5F7
P62314 Q2TBE0
P62314 O43143
P62314 Q7L014
P62314 O43719
P14678 P62318
P14678 P62304
P14678 P62306
P14678 O43395
P14678 URS0000715A86
P14678 P55769
P14678 O43172
P14678 O95400
P14678 Q9BUQ8
P14678 O75643
P14678 O94906
P14678 URS000075BAAE
P14678 Q15029
P14678 Q96DI7
P14678 Q6P2Q9
P14678 Q8WWY3
P14678 Q53GS9
P14678 P62310
P14678 Q9BTD8
P14678 URS0000631BD4
P14678 URS00006767A8
P14678 Q9Y4Z0
P14678 Q8WVK2
P14678 Q9Y333
P14678 Q9UK45
P14678 P83876
P14678 O43290
P14678 P62312
P14678 Q9Y4Y9
P14678 O95777
P14678 P08579
P14678 Q15427
P14678 Q13435
P14678 M14387
P14678 Q15428
P14678 P09234
P14678 139356
P14678 P09012
P14678 Q15393
P14678 Q9BWJ5
P14678 P08621
P14678 URS00006A1489
P14678 Q15459
P14678 P09661
P14678 Q7RTV0
P14678 Q9Y3B4
P14678 Q12874
P14678 Q8IYB3
P14678 Q9UNP9
P14678 Q9HCS7
P14678 P41223
P14678 Q13573
P14678 Q9NW64
P14678 Q13356
P14678 O60306
P14678 Q9BZJ0
P14678 O60870
P14678 Q9HCG8
P14678 Q6UX04
P14678 Q9UQ35
P14678 O15541
P14678 Q8WUA2
P14678 Q9Y3C6
P14678 O60231
P14678 O60508
P14678 O95926
P14678 Q96BP3
P14678 Q9BW85
P14678 Q9NXE8
P14678 Q9NW82
P14678 Q14331
P14678 Q86X95
P14678 Q9ULR0
P14678 Q92620
P14678 Q14562
P14678 Q9GZU8
P14678 P61326
P14678 Q9Y421
P14678 Q8WUQ7
P14678 O95391
P14678 Q9H875
P14678 Q8N5F7
P14678 Q2TBE0
P14678 O43143
P14678 Q7L014
P14678 O43719
P14678 Q969L4
P14678 M17910
P14678 P83369
P62318 P62304
P62318 P62306
P62318 O43395
P62318 URS0000715A86
P62318 P55769
P62318 O43172
P62318 O95400
P62318 Q9BUQ8
P62318 O75643
P62318 O94906
P62318 URS000075BAAE
P62318 Q15029
P62318 Q96DI7
P62318 Q6P2Q9
P62318 Q8WWY3
P62318 Q53GS9
P62318 P62310
P62318 Q9BTD8
P62318 URS0000631BD4
P62318 URS00006767A8
P62318 Q9Y4Z0
P62318 Q8WVK2
P62318 Q9Y333
P62318 Q9UK45
P62318 P83876
P62318 O43290
P62318 P62312
P62318 Q9Y4Y9
P62318 O95777
P62318 P08579
P62318 Q15427
P62318 Q13435
P62318 M14387
P62318 Q15428
P62318 P09234
P62318 139356
P62318 P09012
P62318 Q15393
P62318 Q9BWJ5
P62318 P08621
P62318 URS00006A1489
P62318 Q15459
P62318 P09661
P62318 Q7RTV0
P62318 Q9Y3B4
P62318 Q12874
P62318 Q8IYB3
P62318 Q9UNP9
P62318 Q9HCS7
P62318 P41223
P62318 Q13573
P62318 Q9NW64
P62318 Q13356
P62318 O60306
P62318 Q9BZJ0
P62318 O60870
P62318 Q9HCG8
P62318 Q6UX04
P62318 Q9UQ35
P62318 O15541
P62318 Q8WUA2
P62318 Q9Y3C6
P62318 O60231
P62318 O60508
P62318 O95926
P62318 Q96BP3
P62318 Q9BW85
P62318 Q9NXE8
P62318 Q9NW82
P62318 Q14331
P62318 Q86X95
P62318 Q9ULR0
P62318 Q92620
P62318 Q14562
P62318 Q9GZU8
P62318 P61326
P62318 Q9Y421
P62318 Q8WUQ7
P62318 O95391
P62318 Q9H875
P62318 Q8N5F7
P62318 Q2TBE0
P62318 O43143
P62318 Q7L014
P62318 O43719
P62318 Q969L4
P62318 M17910
P62318 P83369
P62304 P62306
P62304 O43395
P62304 URS0000715A86
P62304 P55769
P62304 O43172
P62304 O95400
P62304 Q9BUQ8
P62304 O75643
P62304 O94906
P62304 URS000075BAAE
P62304 Q15029
P62304 Q96DI7
P62304 Q6P2Q9
P62304 Q8WWY3
P62304 Q53GS9
P62304 P62310
P62304 Q9BTD8
P62304 URS0000631BD4
P62304 URS00006767A8
P62304 Q9Y4Z0
P62304 Q8WVK2
P62304 Q9Y333
P62304 Q9UK45
P62304 P83876
P62304 O43290
P62304 P62312
P62304 Q9Y4Y9
P62304 O95777
P62304 P08579
P62304 Q15427
P62304 Q13435
P62304 M14387
P62304 Q15428
P62304 P09234
P62304 139356
P62304 P09012
P62304 Q15393
P62304 Q9BWJ5
P62304 P08621
P62304 URS00006A1489
P62304 Q15459
P62304 P09661
P62304 Q7RTV0
P62304 Q9Y3B4
P62304 Q12874
P62304 Q8IYB3
P62304 Q9UNP9
P62304 Q9HCS7
P62304 P41223
P62304 Q13573
P62304 Q9NW64
P62304 Q13356
P62304 O60306
P62304 Q9BZJ0
P62304 O60870
P62304 Q9HCG8
P62304 Q6UX04
P62304 Q9UQ35
P62304 O15541
P62304 Q8WUA2
P62304 Q9Y3C6
P62304 O60231
P62304 O60508
P62304 O95926
P62304 Q96BP3
P62304 Q9BW85
P62304 Q9NXE8
P62304 Q9NW82
P62304 Q14331
P62304 Q86X95
P62304 Q9ULR0
P62304 Q92620
P62304 Q14562
P62304 Q9GZU8
P62304 P61326
P62304 Q9Y421
P62304 Q8WUQ7
P62304 O95391
P62304 Q9H875
P62304 Q8N5F7
P62304 Q2TBE0
P62304 O43143
P62304 Q7L014
P62304 O43719
P62304 Q969L4
P62304 M17910
P62304 P83369
P62306 O43395
P62306 URS0000715A86
P62306 P55769
P62306 O43172
P62306 O95400
P62306 Q9BUQ8
P62306 O75643
P62306 O94906
P62306 URS000075BAAE
P62306 Q15029
P62306 Q96DI7
P62306 Q6P2Q9
P62306 Q8WWY3
P62306 Q53GS9
P62306 P62310
P62306 Q9BTD8
P62306 URS0000631BD4
P62306 URS00006767A8
P62306 Q9Y4Z0
P62306 Q8WVK2
P62306 Q9Y333
P62306 Q9UK45
P62306 P83876
P62306 O43290
P62306 P62312
P62306 Q9Y4Y9
P62306 O95777
P62306 P08579
P62306 Q15427
P62306 Q13435
P62306 M14387
P62306 Q15428
P62306 P09234
P62306 139356
P62306 P09012
P62306 Q15393
P62306 Q9BWJ5
P62306 P08621
P62306 URS00006A1489
P62306 Q15459
P62306 P09661
P62306 Q7RTV0
P62306 Q9Y3B4
P62306 Q12874
P62306 Q8IYB3
P62306 Q9UNP9
P62306 Q9HCS7
P62306 P41223
P62306 Q13573
P62306 Q9NW64
P62306 Q13356
P62306 O60306
P62306 Q9BZJ0
P62306 O60870
P62306 Q9HCG8
P62306 Q6UX04
P62306 Q9UQ35
P62306 O15541
P62306 Q8WUA2
P62306 Q9Y3C6
P62306 O60231
P62306 O60508
P62306 O95926
P62306 Q96BP3
P62306 Q9BW85
P62306 Q9NXE8
P62306 Q9NW82
P62306 Q14331
P62306 Q86X95
P62306 Q9ULR0
P62306 Q92620
P62306 Q14562
P62306 Q9GZU8
P62306 P61326
P62306 Q9Y421
P62306 Q8WUQ7
P62306 O95391
P62306 Q9H875
P62306 Q8N5F7
P62306 Q2TBE0
P62306 O43143
P62306 Q7L014
P62306 O43719
P62306 Q969L4
P62306 M17910
P62306 P83369
P60228 Q13347
P60228 O15371
P60228 O15372
P60228 Q7L2H7
P60228 Q99613
P60228 O75821
P60228 Q9UBQ5
P60228 O75822
P60228 Q14152
P60228 O00303
P60228 Q9Y262
P60228 P55884
Q13347 O15371
Q13347 O15372
Q13347 Q7L2H7
Q13347 Q99613
Q13347 O75821
Q13347 Q9UBQ5
Q13347 O75822
Q13347 Q14152
Q13347 O00303
Q13347 Q9Y262
Q13347 P55884
O15371 O15372
O15371 Q7L2H7
O15371 Q99613
O15371 O75821
O15371 Q9UBQ5
O15371 O75822
O15371 Q14152
O15371 O00303
O15371 Q9Y262
O15371 P55884
O15372 Q7L2H7
O15372 Q99613
O15372 O75821
O15372 Q9UBQ5
O15372 O75822
O15372 Q14152
O15372 O00303
O15372 Q9Y262
O15372 P55884
Q7L2H7 Q99613
Q7L2H7 O75821
Q7L2H7 Q9UBQ5
Q7L2H7 O75822
Q7L2H7 Q14152
Q7L2H7 O00303
Q7L2H7 Q9Y262
Q7L2H7 P55884
Q99613 O75821
Q99613 Q9UBQ5
Q99613 O75822
Q99613 Q14152
Q99613 O00303
Q99613 Q9Y262
Q99613 P55884
O75821 Q9UBQ5
O75821 O75822
O75821 Q14152
O75821 O00303
O75821 Q9Y262
O75821 P55884
Q9UBQ5 O75822
Q9UBQ5 Q14152
Q9UBQ5 O00303
Q9UBQ5 Q9Y262
Q9UBQ5 P55884
O75822 Q14152
O75822 O00303
O75822 Q9Y262
O75822 P55884
Q14152 O00303
Q14152 Q9Y262
Q14152 P55884
O00303 Q9Y262
O00303 P55884
Q9Y262 P55884
Q14164 Q9H6S1
Q14164 Q92844
Q14164 A7MCY6
P40763 P42229
P40763 P51692
P40763 Q14765
P42229 P51692
P84022 P43699
P84022 Q9NZH6
Q96ER9 Q9NUT2
0000021084 P81605
P06858 Q8IV16
Q9H2G9 Q9H8Y8
P01222 0000011746
Q8N4H5 Q9P0U1
Q8N4H5 O96008
Q8N4H5 Q15388
Q8N4H5 Q9NS69
Q8N4H5 O94826
Q8N4H5 Q96B49
Q9P0U1 O96008
Q9P0U1 Q15388
Q9P0U1 Q9NS69
Q9P0U1 O94826
Q9P0U1 Q96B49
O96008 Q15388
O96008 Q9NS69
O96008 O94826
O96008 Q96B49
Q15388 Q9NS69
Q15388 O94826
Q15388 Q96B49
Q9NS69 O94826
Q9NS69 Q96B49
O94826 Q96B49
P12074 P00403
P12074 P24311
P12074 P00414
P12074 P10606
P12074 P20674
P12074 P13073
P12074 O00483
P12074 P10176
P12074 P14854
P12074 P00395
P12074 P15954
P12074 P14406
P12074 P09669
P00403 P24311
P00403 P00414
P00403 P10606
P00403 P20674
P00403 P13073
P00403 O00483
P00403 P10176
P00403 P14854
P00403 P00395
P00403 P15954
P00403 P14406
P00403 P09669
P24311 P00414
P24311 P10606
P24311 P20674
P24311 P13073
P24311 O00483
P24311 P10176
P24311 P14854
P24311 P00395
P24311 P15954
P24311 P14406
P24311 P09669
P00414 P10606
P00414 P20674
P00414 P13073
P00414 O00483
P00414 P10176
P00414 P14854
P00414 P00395
P00414 P15954
P00414 P14406
P00414 P09669
P10606 P20674
P10606 P13073
P10606 O00483
P10606 P10176
P10606 P14854
P10606 P00395
P10606 P15954
P10606 P14406
P10606 P09669
P20674 P13073
P20674 O00483
P20674 P10176
P20674 P14854
P20674 P00395
P20674 P15954
P20674 P14406
P20674 P09669
P13073 O00483
P13073 P10176
P13073 P14854
P13073 P00395
P13073 P15954
P13073 P14406
P13073 P09669
O00483 P10176
O00483 P14854
O00483 P00395
O00483 P15954
O00483 P14406
O00483 P09669
P10176 P14854
P10176 P00395
P10176 P15954
P10176 P14406
P10176 P09669
P14854 P00395
P14854 P15954
P14854 P14406
P14854 P09669
P00395 P15954
P00395 P14406
P00395 P09669
P15954 P14406
P15954 P09669
P14406 P09669
Q53H12 P62072
Q53H12 Q9BSF4
Q53H12 Q9Y584
Q53H12 Q9Y5J7
Q53H12 Q6PF06
P62072 Q9BSF4
P62072 Q9Y584
P62072 Q9Y5J7
P62072 Q6PF06
P62072 Q9Y5J6
Q9BSF4 Q9Y584
Q9BSF4 Q9Y5J7
Q9BSF4 Q6PF06
Q9Y584 Q9Y5J7
Q9Y584 Q6PF06
Q9Y5J7 Q6PF06
Q9Y5J7 Q9Y5J6
P38646 O43615
P38646 Q3ZCQ8
P38646 Q9HAV7
P38646 Q8TAA5
P38646 Q9BVV7
P38646 O14925
P38646 Q9Y3D7
P38646 Q99595
P38646 Q9Y5T4
P38646 P60602
P38646 Q96DA6
P38646 O60830
O43615 Q3ZCQ8
O43615 Q9HAV7
O43615 Q8TAA5
O43615 Q9BVV7
O43615 O14925
O43615 Q9Y3D7
O43615 Q99595
O43615 Q9Y5T4
O43615 P60602
O43615 Q96DA6
O43615 O60830
Q3ZCQ8 Q9HAV7
Q3ZCQ8 Q8TAA5
Q3ZCQ8 Q9BVV7
Q3ZCQ8 O14925
Q3ZCQ8 Q9Y3D7
Q3ZCQ8 Q99595
Q3ZCQ8 Q9Y5T4
Q3ZCQ8 P60602
Q3ZCQ8 Q96DA6
Q3ZCQ8 O60830
Q9HAV7 Q8TAA5
Q9HAV7 Q9BVV7
Q9HAV7 O14925
Q9HAV7 Q9Y3D7
Q9HAV7 Q99595
Q9HAV7 Q9Y5T4
Q9HAV7 P60602
Q9HAV7 Q96DA6
Q9HAV7 O60830
Q8TAA5 Q9BVV7
Q8TAA5 O14925
Q8TAA5 Q9Y3D7
Q8TAA5 Q99595
Q8TAA5 Q9Y5T4
Q8TAA5 P60602
Q8TAA5 Q96DA6
Q8TAA5 O60830
Q9BVV7 O14925
Q9BVV7 Q9Y3D7
Q9BVV7 Q99595
Q9BVV7 Q9Y5T4
Q9BVV7 P60602
Q9BVV7 Q96DA6
Q9BVV7 O60830
O14925 Q9Y3D7
O14925 Q99595
O14925 Q9Y5T4
O14925 P60602
O14925 Q96DA6
O14925 O60830
Q9Y3D7 Q99595
Q9Y3D7 Q9Y5T4
Q9Y3D7 P60602
Q9Y3D7 Q96DA6
Q9Y3D7 O60830
Q99595 Q9Y5T4
Q99595 P60602
Q99595 Q96DA6
Q9Y5T4 P60602
Q9Y5T4 Q96DA6
Q9Y5T4 O60830
P60602 Q96DA6
P60602 O60830
Q96DA6 O60830
Q9Y5L4 O60220
Q9Y5L4 Q9Y5J9
Q13505 Q9Y512
Q13505 O75431
Q9Y512 O75431
Q5XKP0 Q9BUR5
Q5XKP0 Q6UXV4
Q5XKP0 Q5TGZ0
Q5XKP0 Q16891
Q5XKP0 Q9NX63
Q5XKP0 Q9BRQ6
Q9BUR5 Q6UXV4
Q9BUR5 Q5TGZ0
Q9BUR5 Q16891
Q9BUR5 Q9NX63
Q9BUR5 Q9BRQ6
Q6UXV4 Q5TGZ0
Q6UXV4 Q16891
Q6UXV4 Q9NX63
Q6UXV4 Q9BRQ6
Q5TGZ0 Q16891
Q5TGZ0 Q9NX63
Q5TGZ0 Q9BRQ6
Q16891 Q9NX63
Q16891 Q9BRQ6
Q9NX63 Q9BRQ6
Q92574 Q9P0N9
Q92574 P49815
Q9P0N9 P49815
Q9NWS0 Q9H6T3
Q9UHV9 O94763
Q9UHV9 Q9NUG6
Q9UHV9 O15212
Q9UHV9 Q9UBK9
Q9UHV9 P61758
Q9UHV9 Q99471
Q9UHV9 Q9NQP4
Q9UHV9 O60925
O94763 Q9NUG6
O94763 O15212
O94763 Q9UBK9
Q9NUG6 O15212
Q9NUG6 Q9UBK9
Q9NUG6 P61758
Q9NUG6 Q99471
Q9NUG6 O60925
O15212 Q9UBK9
O15212 P61758
O15212 Q99471
O15212 Q9NQP4
O15212 O60925
Q96MX6 P19388
Q96MX6 L0R819
P19388 L0R819
P19388 P24928
P19388 P36954
P19388 P52435
P19388 O15514
P19388 P52434
P19388 P61218
P19388 P30876
P19388 P53803
P19388 P62487
P19388 P19387
P19388 P62875
P19388 O14802
P19388 Q9NVU0
P19388 Q9BUI4
P19388 Q9NW08
P19388 P0DPB6
P19388 P05423
P19388 Q9Y2Y1
P19388 Q9Y535
P19388 O75575
P19388 Q9BT43
P19388 O15160
P19388 Q9H1D9
P19388 Q9H9Y6
P19388 Q3B726
P19388 Q9GZS1
P19388 O95602
P19388 Q9P1U0
P19388 O15446
P19388 P0CAP2
P19388 O15318
Q6NXR4 Q9Y4R8
Q6NXR4 O43156
Q9Y4R8 O43156
P61758 Q99471
P61758 Q9NQP4
P61758 O60925
Q99471 Q9NQP4
Q99471 O60925
Q9NQP4 O60925
Q07617 Q8WWB5
Q07617 Q9NVR5
P24539 P56381
P24539 P00846
P24539 P05496
P24539 P30049
P24539 P56385
P24539 P36542
P24539 P25705
P24539 P06576
P24539 Q7Z4Y8
P24539 P56134
P24539 Q96IX5
P24539 P03928
P24539 O75947
P24539 P56378
P24539 P48201
P24539 Q5VTU8
P24539 P18859
P24539 O75964
P24539 Q06055
P24539 P48047
P56381 P00846
P56381 P05496
P56381 P30049
P56381 P56385
P56381 P36542
P56381 P25705
P56381 P06576
P56381 Q7Z4Y8
P56381 P56134
P56381 Q96IX5
P56381 P03928
P56381 O75947
P56381 P56378
P56381 P48201
P56381 Q5VTU8
P56381 P18859
P56381 O75964
P56381 Q06055
P56381 P48047
P00846 P05496
P00846 P30049
P00846 P56385
P00846 P36542
P00846 P25705
P00846 P06576
P00846 Q7Z4Y8
P00846 P56134
P00846 Q96IX5
P00846 P03928
P00846 O75947
P00846 P56378
P00846 P48201
P00846 Q5VTU8
P00846 P18859
P00846 O75964
P00846 Q06055
P00846 P48047
P05496 P30049
P05496 P56385
P05496 P36542
P05496 P25705
P05496 P06576
P05496 Q7Z4Y8
P05496 P56134
P05496 Q96IX5
P05496 P03928
P05496 O75947
P05496 P56378
P05496 P48201
P05496 Q5VTU8
P05496 P18859
P05496 O75964
P05496 Q06055
P05496 P48047
P30049 P56385
P30049 P36542
P30049 P25705
P30049 P06576
P30049 Q7Z4Y8
P30049 P56134
P30049 Q96IX5
P30049 P03928
P30049 O75947
P30049 P56378
P30049 P48201
P30049 Q5VTU8
P30049 P18859
P30049 O75964
P30049 Q06055
P30049 P48047
P56385 P36542
P56385 P25705
P56385 P06576
P56385 Q7Z4Y8
P56385 P56134
P56385 Q96IX5
P56385 P03928
P56385 O75947
P56385 P56378
P56385 P48201
P56385 Q5VTU8
P56385 P18859
P56385 O75964
P56385 Q06055
P56385 P48047
P36542 P25705
P36542 P06576
P36542 Q7Z4Y8
P36542 P56134
P36542 Q96IX5
P36542 P03928
P36542 O75947
P36542 P56378
P36542 P48201
P36542 Q5VTU8
P36542 P18859
P36542 O75964
P36542 Q06055
P36542 P48047
P25705 P06576
P25705 Q7Z4Y8
P25705 P56134
P25705 Q96IX5
P25705 P03928
P25705 O75947
P25705 P56378
P25705 P48201
P25705 Q5VTU8
P25705 P18859
P25705 O75964
P25705 Q06055
P25705 P48047
P06576 Q7Z4Y8
P06576 P56134
P06576 Q96IX5
P06576 P03928
P06576 O75947
P06576 P56378
P06576 P48201
P06576 Q5VTU8
P06576 P18859
P06576 O75964
P06576 Q06055
P06576 P48047
Q7Z4Y8 P56134
Q7Z4Y8 Q96IX5
Q7Z4Y8 P03928
Q7Z4Y8 O75947
Q7Z4Y8 P56378
Q7Z4Y8 P48201
Q7Z4Y8 Q5VTU8
Q7Z4Y8 P18859
Q7Z4Y8 O75964
Q7Z4Y8 Q06055
Q7Z4Y8 P48047
P56134 Q96IX5
P56134 P03928
P56134 O75947
P56134 P56378
P56134 P48201
P56134 Q5VTU8
P56134 P18859
P56134 O75964
P56134 Q06055
P56134 P48047
Q96IX5 P03928
Q96IX5 O75947
Q96IX5 P56378
Q96IX5 P48201
Q96IX5 Q5VTU8
Q96IX5 P18859
Q96IX5 O75964
Q96IX5 Q06055
Q96IX5 P48047
P03928 O75947
P03928 P56378
P03928 P48201
P03928 Q5VTU8
P03928 P18859
P03928 O75964
P03928 Q06055
P03928 P48047
O75947 P56378
O75947 P48201
O75947 Q5VTU8
O75947 P18859
O75947 O75964
O75947 Q06055
O75947 P48047
P56378 P48201
P56378 Q5VTU8
P56378 P18859
P56378 O75964
P56378 Q06055
P56378 P48047
P48201 Q5VTU8
P48201 P18859
P48201 O75964
P48201 Q06055
P48201 P48047
Q5VTU8 P18859
Q5VTU8 O75964
Q5VTU8 Q06055
Q5VTU8 P48047
P18859 O75964
P18859 Q06055
P18859 P48047
O75964 Q06055
O75964 P48047
Q06055 P48047
O95563 Q9Y5U8
O95563 P0DKB6
Q99714 O15091
Q99714 Q7L0Y3
Q99714 Q96Q11
Q99714 Q9BQ52
O15091 Q7L0Y3
Q7L0Y3 Q96Q11
Q7L0Y3 Q9BQ52
0000042699 0000042706
0000042699 P0C0L5
0000042699 0000042703
0000042706 P0C0L5
0000042706 0000042703
P0C0L5 0000042703
P10643 P07360
P10643 P02748
P10643 P07358
P10643 P07357
P07360 P02748
P07360 P07358
P07360 P07357
P02748 P07358
P02748 P07357
P07358 P07357
P05156 0000027569
P05156 0000027570
0000027569 0000027570
Q9BUF7 Q8N3R9
Q9BUF7 Q8NI35
Q8N3R9 Q8NI35
Q8N3R9 P82279
Q8N3R9 Q5IJ48
Q8NI35 P82279
Q8NI35 Q5IJ48
Q6P1M3 Q12959
Q6P1M3 Q14160
Q6P1M3 Q15700
Q6P1M3 Q92796
Q6P1M3 P78352
Q6P1M3 Q8TDM6
Q12959 Q14160
Q12959 Q15334
Q14160 Q15700
Q14160 Q92796
Q14160 P78352
Q14160 Q8TDM6
Q14160 Q15334
P05166 P05165
0000027593 0000027594
0000027593 P48740
0000027593 P11226
0000027593 O00602
0000027593 Q15485
0000027593 O75636
0000027593 Q9BWP8
0000027593 Q9Y6Z7
0000027594 P48740
0000027594 P11226
0000027594 O00602
0000027594 Q15485
0000027594 O75636
0000027594 Q9BWP8
0000027594 Q9Y6Z7
P48740 P11226
P48740 O00602
P48740 Q15485
P48740 O75636
P48740 Q9BWP8
P48740 Q9Y6Z7
P11226 0000027600
P11226 0000027599
P11226 O00187
O00602 0000027600
O00602 0000027599
O00602 O00187
O60671 O60921
O60671 Q99638
O60921 Q99638
O43716 Q9H0R6
O43716 O75879
Q9H0R6 O75879
Q96I99 P53597
P53597 Q9P2R7
Q16740 O76031
Q15485 0000027600
Q15485 0000027599
Q15485 O00187
O75636 0000027600
O75636 0000027599
O75636 O00187
Q9BWP8 Q9Y6Z7
Q9BWP8 0000027599
Q9BWP8 O00187
Q9BWP8 0000027600
Q9Y6Z7 0000027599
Q9Y6Z7 O00187
Q9Y6Z7 0000027600
P41743 Q9NPB6
P41743 Q8TEW0
P41743 Q9BYG5
P41743 Q9BYG4
Q9NPB6 Q8TEW0
Q9NPB6 Q05513
Q8TEW0 Q9BYG5
Q8TEW0 Q9BYG4
Q8TEW0 Q05513
Q15700 Q15334
Q92796 Q15334
P78352 Q15334
Q8TDM6 Q15334
Q9BYG5 Q05513
Q9BYG4 Q05513
Q8WTW3 Q96JB2
Q8WTW3 Q96MW5
Q8WTW3 Q9H9E3
Q8WTW3 Q9Y2V7
Q8WTW3 P83436
Q8WTW3 Q14746
Q8WTW3 Q9UP83
Q96JB2 Q96MW5
Q96JB2 Q9H9E3
Q96JB2 Q9Y2V7
Q96JB2 P83436
Q96JB2 Q14746
Q96JB2 Q9UP83
Q96MW5 Q9H9E3
Q96MW5 Q9Y2V7
Q96MW5 P83436
Q96MW5 Q14746
Q96MW5 Q9UP83
Q9H9E3 Q9Y2V7
Q9H9E3 P83436
Q9H9E3 Q14746
Q9H9E3 Q9UP83
Q9Y2V7 P83436
Q9Y2V7 Q14746
Q9Y2V7 Q9UP83
P83436 Q14746
P83436 Q9UP83
Q14746 Q9UP83
A2RRP1 Q6NUQ1
0000027600 0000027599
0000027600 O00187
0000027599 O00187
P03951 0000027826
P03951 0000027825
0000027826 0000027825
Q9UID3 Q5VIR6
Q9UID3 Q8N1B4
Q9UID3 Q96JG6
Q9UID3 Q9P1Q0
Q5VIR6 Q8N1B4
Q5VIR6 Q96JG6
Q5VIR6 Q9P1Q0
Q8N1B4 Q96JG6
Q8N1B4 Q9P1Q0
0000027835 0000027833
0000027835 P00748
0000027833 P00748
P08709 0000027730
P08709 0000027731
P08709 P13726
P08709 0000033638
0000027730 0000027731
0000027730 P13726
0000027730 0000033638
0000027731 P13726
0000027731 0000033638
Q9H269 Q9P253
Q9H269 Q96AX1
Q9H269 P49754
Q9H269 Q9H270
Q9H269 Q96JC1
Q9H269 Q8WUH2
Q9H269 Q8N3P4
Q9P253 Q96AX1
Q9P253 P49754
Q9P253 Q9H270
Q9P253 Q96JC1
Q9P253 Q8WUH2
Q9P253 Q8N3P4
Q96AX1 P49754
Q96AX1 Q9H270
Q96AX1 Q96JC1
Q96AX1 Q8WUH2
Q96AX1 Q8N3P4
P49754 Q9H270
P49754 Q96JC1
Q9H270 Q96JC1
Q9H270 Q8WUH2
Q9H270 Q8N3P4
Q8WUH2 Q8N3P4
P00742 0000027788
P00742 0000027789
0000027788 0000027789
P12259 0000002981
P12259 0000002979
0000002981 0000002979
P00734 0000028163
P00734 0000028164
0000028163 0000028164
0000028110 P04070
0000028110 0000028109
P04070 0000028109
0000009022 0000009099
0000009022 P02671
0000009022 P02675
0000009022 P02679
0000009022 0000009071
0000009099 P02671
0000009099 P02675
0000009099 P02679
0000009099 0000009071
0000009099 0000009070
0000009099 0000009021
P02671 P02675
P02671 P02679
P02671 0000009071
P02671 0000009070
P02671 0000009021
P02675 P02679
P02675 0000009071
P02675 0000009070
P02675 0000009021
P02679 0000009071
P02679 0000009070
P02679 0000009021
O75140 Q12980
O75140 Q8WTW4
Q12980 Q8WTW4
Q6PJI9 Q96S15
Q6PJI9 Q9NXC5
Q96S15 Q9NXC5
Q969R8 Q9Y664
Q969R8 Q5T011
Q969R8 Q96MD2
Q9Y664 Q5T011
Q9Y664 Q96MD2
Q5T011 Q96MD2
P05160 P00488
P10515 O00330
P10515 P09622
P10515 P29803
O00330 P09622
O00330 P29803
P09622 P29803
P09622 P36957
P09622 Q02218
P09622 P82909
P09622 P21953
P09622 P11182
P09622 P12694
0000028021 0000028022
0000028021 P03952
0000028022 P03952
Q96RQ3 Q9HCC0
Q9H267 Q9H9C1
O75439 Q10713
Q96LU5 Q96T52
P40939 P55084
Q9P0J1 Q8NCN5
Q6NZ36 Q9NW38
Q6NZ36 Q00597
Q6NZ36 Q9NPI8
Q6NZ36 O15287
Q6NZ36 Q0VG06
Q6NZ36 Q8NB91
Q6NZ36 O15360
Q6NZ36 Q9HB96
Q9NW38 Q00597
Q9NW38 Q9NPI8
Q9NW38 O15287
Q9NW38 Q0VG06
Q9NW38 Q8NB91
Q9NW38 O15360
Q9NW38 Q9HB96
Q00597 Q9NPI8
Q00597 O15287
Q00597 Q0VG06
Q00597 Q8NB91
Q00597 O15360
Q00597 Q9HB96
Q9NPI8 O15287
Q9NPI8 Q0VG06
Q9NPI8 Q8NB91
Q9NPI8 O15360
Q9NPI8 Q9HB96
O15287 Q0VG06
O15287 Q8NB91
O15287 O15360
O15287 Q9HB96
Q0VG06 Q8NB91
Q0VG06 O15360
Q0VG06 Q9HB96
Q8NB91 O15360
Q8NB91 Q9HB96
O15360 Q9HB96
Q9BXW9 Q9NVI1
Q8IYD8 Q9BTP7
P18615 Q9H3P2
P18615 Q8WX92
P18615 Q8IXH7
Q9H3P2 Q8WX92
Q9H3P2 Q8IXH7
Q8WX92 Q8IXH7
O94777 O60762
O94777 Q9P2X0
O94777 Q14442
O94777 Q92535
O94777 Q9BRB3
O94777 P57054
O94777 Q3MUY2
O94777 P37287
O60762 Q9P2X0
Q9UJA5 Q96FX7
P61599 Q14CX7
Q9BXJ9 P41227
Q9BXJ9 Q9BSU3
P41227 Q6N069
Q6N069 Q9BSU3
Q147X3 Q5VZE5
Q147X3 Q9BRA0
Q5VZE5 Q9BRA0
Q99871 Q9H6D7
Q99871 Q7Z4H7
Q99871 Q9NVX0
Q99871 Q9BT25
Q99871 O94927
Q99871 Q68CZ6
Q99871 Q96CS2
Q9H6D7 Q7Z4H7
Q9H6D7 Q9NVX0
Q9H6D7 Q9BT25
Q9H6D7 O94927
Q9H6D7 Q68CZ6
Q9H6D7 Q96CS2
Q7Z4H7 Q9NVX0
Q7Z4H7 Q9BT25
Q7Z4H7 O94927
Q7Z4H7 Q68CZ6
Q7Z4H7 Q96CS2
Q9NVX0 Q9BT25
Q9NVX0 O94927
Q9NVX0 Q68CZ6
Q9NVX0 Q96CS2
Q9BT25 O94927
Q9BT25 Q68CZ6
Q9BT25 Q96CS2
O94927 Q68CZ6
O94927 Q96CS2
Q68CZ6 Q96CS2
O43520 Q9NV96
O43520 Q3MIR4
Q9NV96 Q9Y2Q0
Q9NV96 Q9NTI2
Q9NV96 P98198
Q9NV96 O60423
Q9NV96 Q8TF62
Q9NV96 O60312
Q9NV96 O94823
Q9NV96 Q9P241
Q9NV96 P98196
Q9NV96 Q9Y2G3
Q9NV96 Q8NB49
Q3MIR4 Q9Y2Q0
Q3MIR4 P98198
Q3MIR4 Q8TF62
Q86WC4 P51798
P62861 P62269
P62861 P42677
P62861 P62244
P62861 P23396
P62861 P46783
P62861 P62847
P62861 P62249
P62861 Q71UM5
P62861 P25398
P62861 P62263
P62861 P63244
P62861 P62277
P62861 P15880
P62861 URS0000704D22
P62861 P39019
P62861 P62979
P62861 P60866
P62861 P62851
P62861 P61247
P62861 P62266
P62861 P62753
P62861 P62857
P62861 P08708
P62861 P46782
P62861 P62701
P62861 P62273
P62861 P08865
P62861 P62241
P62861 P62854
P62861 P62280
P62861 P63220
P62861 P46781
P62861 P62081
P62861 P62841
P62269 P42677
P62269 P62244
P62269 P23396
P62269 P46783
P62269 P62847
P62269 P62249
P62269 Q71UM5
P62269 P25398
P62269 P62263
P62269 P63244
P62269 P62277
P62269 P15880
P62269 URS0000704D22
P62269 P39019
P62269 P62979
P62269 P60866
P62269 P62851
P62269 P61247
P62269 P62266
P62269 P62753
P62269 P62857
P62269 P08708
P62269 P46782
P62269 P62701
P62269 P62273
P62269 P08865
P62269 P62241
P62269 P62854
P62269 P62280
P62269 P63220
P62269 P46781
P62269 P62081
P62269 P62841
P42677 P62244
P42677 P23396
P42677 P46783
P42677 P62847
P42677 P62249
P42677 Q71UM5
P42677 P25398
P42677 P62263
P42677 P63244
P42677 P62277
P42677 P15880
P42677 URS0000704D22
P42677 P39019
P42677 P62979
P42677 P60866
P42677 P62851
P42677 P61247
P42677 P62266
P42677 P62753
P42677 P62857
P42677 P08708
P42677 P46782
P42677 P62701
P42677 P62273
P42677 P08865
P42677 P62241
P42677 P62854
P42677 P62280
P42677 P63220
P42677 P46781
P42677 P62081
P42677 P62841
P62244 P23396
P62244 P46783
P62244 P62847
P62244 P62249
P62244 Q71UM5
P62244 P25398
P62244 P62263
P62244 P63244
P62244 P62277
P62244 P15880
P62244 URS0000704D22
P62244 P39019
P62244 P62979
P62244 P60866
P62244 P62851
P62244 P61247
P62244 P62266
P62244 P62753
P62244 P62857
P62244 P08708
P62244 P46782
P62244 P62701
P62244 P62273
P62244 P08865
P62244 P62241
P62244 P62854
P62244 P62280
P62244 P63220
P62244 P46781
P62244 P62081
P62244 P62841
P23396 P46783
P23396 P62847
P23396 P62249
P23396 Q71UM5
P23396 P25398
P23396 P62263
P23396 P63244
P23396 P62277
P23396 P15880
P23396 URS0000704D22
P23396 P39019
P23396 P62979
P23396 P60866
P23396 P62851
P23396 P61247
P23396 P62266
P23396 P62753
P23396 P62857
P23396 P08708
P23396 P46782
P23396 P62701
P23396 P62273
P23396 P08865
P23396 P62241
P23396 P62854
P23396 P62280
P23396 P63220
P23396 P46781
P23396 P62081
P23396 P62841
P46783 P62847
P46783 P62249
P46783 Q71UM5
P46783 P25398
P46783 P62263
P46783 P63244
P46783 P62277
P46783 P15880
P46783 URS0000704D22
P46783 P39019
P46783 P62979
P46783 P60866
P46783 P62851
P46783 P61247
P46783 P62266
P46783 P62753
P46783 P62857
P46783 P08708
P46783 P46782
P46783 P62701
P46783 P62273
P46783 P08865
P46783 P62241
P46783 P62854
P46783 P62280
P46783 P63220
P46783 P46781
P46783 P62081
P46783 P62841
P62847 P62249
P62847 Q71UM5
P62847 P25398
P62847 P62263
P62847 P63244
P62847 P62277
P62847 P15880
P62847 URS0000704D22
P62847 P39019
P62847 P62979
P62847 P60866
P62847 P62851
P62847 P61247
P62847 P62266
P62847 P62753
P62847 P62857
P62847 P08708
P62847 P46782
P62847 P62701
P62847 P62273
P62847 P08865
P62847 P62241
P62847 P62854
P62847 P62280
P62847 P63220
P62847 P46781
P62847 P62081
P62847 P62841
P62249 Q71UM5
P62249 P25398
P62249 P62263
P62249 P63244
P62249 P62277
P62249 P15880
P62249 URS0000704D22
P62249 P39019
P62249 P62979
P62249 P60866
P62249 P62851
P62249 P61247
P62249 P62266
P62249 P62753
P62249 P62857
P62249 P08708
P62249 P46782
P62249 P62701
P62249 P62273
P62249 P08865
P62249 P62241
P62249 P62854
P62249 P62280
P62249 P63220
P62249 P46781
P62249 P62081
P62249 P62841
Q71UM5 P25398
Q71UM5 P62263
Q71UM5 P63244
Q71UM5 P62277
Q71UM5 P15880
Q71UM5 URS0000704D22
Q71UM5 P39019
Q71UM5 P62979
Q71UM5 P60866
Q71UM5 P62851
Q71UM5 P61247
Q71UM5 P62266
Q71UM5 P62753
Q71UM5 P62857
Q71UM5 P08708
Q71UM5 P46782
Q71UM5 P62701
Q71UM5 P62273
Q71UM5 P08865
Q71UM5 P62241
Q71UM5 P62854
Q71UM5 P62280
Q71UM5 P63220
Q71UM5 P46781
Q71UM5 P62081
Q71UM5 P62841
P25398 P62263
P25398 P63244
P25398 P62277
P25398 P15880
P25398 URS0000704D22
P25398 P39019
P25398 P62979
P25398 P60866
P25398 P62851
P25398 P61247
P25398 P62266
P25398 P62753
P25398 P62857
P25398 P08708
P25398 P46782
P25398 P62701
P25398 P62273
P25398 P08865
P25398 P62241
P25398 P62854
P25398 P62280
P25398 P63220
P25398 P46781
P25398 P62081
P25398 P62841
P62263 P63244
P62263 P62277
P62263 P15880
P62263 URS0000704D22
P62263 P39019
P62263 P62979
P62263 P60866
P62263 P62851
P62263 P61247
P62263 P62266
P62263 P62753
P62263 P62857
P62263 P08708
P62263 P46782
P62263 P62701
P62263 P62273
P62263 P08865
P62263 P62241
P62263 P62854
P62263 P62280
P62263 P63220
P62263 P46781
P62263 P62081
P62263 P62841
P63244 P62277
P63244 P15880
P63244 URS0000704D22
P63244 P39019
P63244 P62979
P63244 P60866
P63244 P62851
P63244 P61247
P63244 P62266
P63244 P62753
P63244 P62857
P63244 P08708
P63244 P46782
P63244 P62701
P63244 P62273
P63244 P08865
P63244 P62241
P63244 P62854
P63244 P62280
P63244 P63220
P63244 P46781
P63244 P62081
P63244 P62841
P62277 P15880
P62277 URS0000704D22
P62277 P39019
P62277 P62979
P62277 P60866
P62277 P62851
P62277 P61247
P62277 P62266
P62277 P62753
P62277 P62857
P62277 P08708
P62277 P46782
P62277 P62701
P62277 P62273
P62277 P08865
P62277 P62241
P62277 P62854
P62277 P62280
P62277 P63220
P62277 P46781
P62277 P62081
P62277 P62841
P15880 URS0000704D22
P15880 P39019
P15880 P62979
P15880 P60866
P15880 P62851
P15880 P61247
P15880 P62266
P15880 P62753
P15880 P62857
P15880 P08708
P15880 P46782
P15880 P62701
P15880 P62273
P15880 P08865
P15880 P62241
P15880 P62854
P15880 P62280
P15880 P63220
P15880 P46781
P15880 P62081
P15880 P62841
URS0000704D22 P39019
URS0000704D22 P62979
URS0000704D22 P60866
URS0000704D22 P62851
URS0000704D22 P61247
URS0000704D22 P62266
URS0000704D22 P62753
URS0000704D22 P62857
URS0000704D22 P08708
URS0000704D22 P46782
URS0000704D22 P62701
URS0000704D22 P62273
URS0000704D22 P08865
URS0000704D22 P62241
URS0000704D22 P62854
URS0000704D22 P62280
URS0000704D22 P63220
URS0000704D22 P46781
URS0000704D22 P62081
URS0000704D22 P62841
P39019 P62979
P39019 P60866
P39019 P62851
P39019 P61247
P39019 P62266
P39019 P62753
P39019 P62857
P39019 P08708
P39019 P46782
P39019 P62701
P39019 P62273
P39019 P08865
P39019 P62241
P39019 P62854
P39019 P62280
P39019 P63220
P39019 P46781
P39019 P62081
P39019 P62841
P62979 P60866
P62979 P62851
P62979 P61247
P62979 P62266
P62979 P62753
P62979 P62857
P62979 P08708
P62979 P46782
P62979 P62701
P62979 P62273
P62979 P08865
P62979 P62241
P62979 P62854
P62979 P62280
P62979 P63220
P62979 P46781
P62979 P62081
P62979 P62841
P60866 P62851
P60866 P61247
P60866 P62266
P60866 P62753
P60866 P62857
P60866 P08708
P60866 P46782
P60866 P62701
P60866 P62273
P60866 P08865
P60866 P62241
P60866 P62854
P60866 P62280
P60866 P63220
P60866 P46781
P60866 P62081
P60866 P62841
P62851 P61247
P62851 P62266
P62851 P62753
P62851 P62857
P62851 P08708
P62851 P46782
P62851 P62701
P62851 P62273
P62851 P08865
P62851 P62241
P62851 P62854
P62851 P62280
P62851 P63220
P62851 P46781
P62851 P62081
P62851 P62841
P61247 P62266
P61247 P62753
P61247 P62857
P61247 P08708
P61247 P46782
P61247 P62701
P61247 P62273
P61247 P08865
P61247 P62241
P61247 P62854
P61247 P62280
P61247 P63220
P61247 P46781
P61247 P62081
P61247 P62841
P62266 P62753
P62266 P62857
P62266 P08708
P62266 P46782
P62266 P62701
P62266 P62273
P62266 P08865
P62266 P62241
P62266 P62854
P62266 P62280
P62266 P63220
P62266 P46781
P62266 P62081
P62266 P62841
P62753 P62857
P62753 P08708
P62753 P46782
P62753 P62701
P62753 P62273
P62753 P08865
P62753 P62241
P62753 P62854
P62753 P62280
P62753 P63220
P62753 P46781
P62753 P62081
P62753 P62841
P62857 P08708
P62857 P46782
P62857 P62701
P62857 P62273
P62857 P08865
P62857 P62241
P62857 P62854
P62857 P62280
P62857 P63220
P62857 P46781
P62857 P62081
P62857 P62841
P08708 P46782
P08708 P62701
P08708 P62273
P08708 P08865
P08708 P62241
P08708 P62854
P08708 P62280
P08708 P63220
P08708 P46781
P08708 P62081
P08708 P62841
P46782 P62701
P46782 P62273
P46782 P08865
P46782 P62241
P46782 P62854
P46782 P62280
P46782 P63220
P46782 P46781
P46782 P62081
P46782 P62841
P62701 P62273
P62701 P08865
P62701 P62241
P62701 P62854
P62701 P62280
P62701 P63220
P62701 P46781
P62701 P62081
P62701 P62841
P62273 P08865
P62273 P62241
P62273 P62854
P62273 P62280
P62273 P63220
P62273 P46781
P62273 P62081
P62273 P62841
P08865 P62241
P08865 P62854
P08865 P62280
P08865 P63220
P08865 P46781
P08865 P62081
P08865 P62841
P62241 P62854
P62241 P62280
P62241 P63220
P62241 P46781
P62241 P62081
P62241 P62841
P62854 P62280
P62854 P63220
P62854 P46781
P62854 P62081
P62854 P62841
P62280 P63220
P62280 P46781
P62280 P62081
P62280 P62841
P63220 P46781
P63220 P62081
P63220 P62841
P46781 P62081
P46781 P62841
P62081 P62841
Q9BQ95 Q8IUX1
Q9BQ95 Q96B77
Q9BQ95 Q9Y375
Q9BQ95 Q9H845
Q9BQ95 Q9GZY4
Q8IUX1 Q96B77
Q8IUX1 Q9Y375
Q8IUX1 Q9H845
Q8IUX1 Q9GZY4
Q96B77 Q9Y375
Q96B77 Q9H845
Q96B77 Q9GZY4
Q9Y375 Q9H845
Q9Y375 Q9GZY4
Q9H845 Q9GZY4
Q9UJX2 Q9BS18
Q9UJX2 Q9UJX4
Q9UJX2 Q9UJX5
Q9UJX2 Q13042
Q9UJX2 Q9UJX3
Q9UJX2 Q9UJX6
Q9UJX2 P30260
Q9UJX2 Q9UM13
Q9UJX2 Q9NYG5
Q9UJX2 Q9H1A4
Q9UJX2 Q96DE5
Q9UJX2 Q8NHZ8
Q9UJX2 P60006
Q9BS18 Q9UJX4
Q9BS18 Q9UJX5
Q9BS18 Q13042
Q9BS18 Q9UJX3
Q9BS18 Q9UJX6
Q9BS18 P30260
Q9BS18 Q9UM13
Q9BS18 Q9NYG5
Q9BS18 Q9H1A4
Q9BS18 Q96DE5
Q9BS18 Q8NHZ8
Q9BS18 P60006
Q9UJX4 Q9UJX5
Q9UJX4 Q13042
Q9UJX4 Q9UJX3
Q9UJX4 Q9UJX6
Q9UJX4 P30260
Q9UJX4 Q9UM13
Q9UJX4 Q9NYG5
Q9UJX4 Q9H1A4
Q9UJX4 Q96DE5
Q9UJX4 Q8NHZ8
Q9UJX4 P60006
Q9UJX5 Q13042
Q9UJX5 Q9UJX3
Q9UJX5 Q9UJX6
Q9UJX5 P30260
Q9UJX5 Q9UM13
Q9UJX5 Q9NYG5
Q9UJX5 Q9H1A4
Q9UJX5 Q96DE5
Q9UJX5 Q8NHZ8
Q9UJX5 P60006
Q13042 Q9UJX3
Q13042 Q9UJX6
Q13042 P30260
Q13042 Q9UM13
Q13042 Q9NYG5
Q13042 Q9H1A4
Q13042 Q96DE5
Q13042 Q8NHZ8
Q13042 P60006
Q9UJX3 Q9UJX6
Q9UJX3 P30260
Q9UJX3 Q9UM13
Q9UJX3 Q9NYG5
Q9UJX3 Q9H1A4
Q9UJX3 Q96DE5
Q9UJX3 Q8NHZ8
Q9UJX3 P60006
Q9UJX6 P30260
Q9UJX6 Q9UM13
Q9UJX6 Q9NYG5
Q9UJX6 Q9H1A4
Q9UJX6 Q96DE5
Q9UJX6 Q8NHZ8
Q9UJX6 P60006
P30260 Q9UM13
P30260 Q9NYG5
P30260 Q9H1A4
P30260 Q96DE5
P30260 Q8NHZ8
P30260 P60006
Q9UM13 Q9NYG5
Q9UM13 Q9H1A4
Q9UM13 Q96DE5
Q9UM13 Q8NHZ8
Q9UM13 P60006
Q9NYG5 Q9H1A4
Q9NYG5 Q96DE5
Q9NYG5 Q8NHZ8
Q9NYG5 P60006
Q9H1A4 Q96DE5
Q9H1A4 Q8NHZ8
Q9H1A4 P60006
Q96DE5 Q8NHZ8
Q96DE5 P60006
Q8NHZ8 P60006
O96007 O96033
O75449 Q9BVA0
O75449 Q9H079
Q9BVA0 Q8IYT4
Q9BVA0 Q9BW62
Q9H079 Q9BW62
Q9H079 Q8IYT4
P18847 P15336
P18847 P17544
P18847 Q16520
P18847 Q9NR55
P18847 Q15744
P18847 P17275
P18847 P15407
P18847 P15408
P18847 Q9ULX9
P18847 O15525
Q92905 Q9UBW8
Q92905 Q99627
Q92905 P61201
Q92905 Q13098
Q92905 Q9UNS2
Q92905 Q7L5N1
Q92905 Q9BT78
Q92905 Q9H9Q2
Q9UBW8 Q99627
Q9UBW8 P61201
Q9UBW8 Q13098
Q9UBW8 Q9UNS2
Q9UBW8 Q7L5N1
Q9UBW8 Q9BT78
Q99627 P61201
Q99627 Q13098
Q99627 Q9UNS2
Q99627 Q7L5N1
Q99627 Q9BT78
Q99627 Q9H9Q2
P61201 Q13098
P61201 Q9UNS2
P61201 Q7L5N1
P61201 Q9BT78
P61201 Q9H9Q2
Q13098 Q9UNS2
Q13098 Q7L5N1
Q13098 Q9BT78
Q13098 Q9H9Q2
Q9UNS2 Q7L5N1
Q9UNS2 Q9BT78
Q9UNS2 Q9H9Q2
Q7L5N1 Q9BT78
Q7L5N1 Q9H9Q2
Q9BT78 Q9H9Q2
O14867 P15336
O14867 P17544
O14867 Q16520
O14867 Q9ULX9
O14867 O60675
O14867 Q9Y5Q3
O14867 O75444
O14867 O15525
Q16649 Q16520
P15336 P17544
P15336 Q16520
P15336 Q9NR55
P15336 P15407
P15336 P15408
P15336 Q8WYK2
P15336 P17275
P17544 P53567
P17544 P15408
P17544 P17275
P17544 Q16621
P17544 Q14494
P17544 0000443103
Q9Y224 Q9BVC5
Q9Y224 Q8NCA5
Q9Y224 Q52LJ0
Q9Y224 Q9Y3I0
Q9Y224 Q8IWT0
Q9Y224 Q92499
Q9BVC5 Q8NCA5
Q9BVC5 Q52LJ0
Q9BVC5 Q9Y3I0
Q9BVC5 Q8IWT0
Q9BVC5 Q92499
Q8NCA5 Q52LJ0
Q8NCA5 Q9Y3I0
Q8NCA5 Q8IWT0
Q8NCA5 Q92499
Q52LJ0 Q9Y3I0
Q52LJ0 Q8IWT0
Q52LJ0 Q92499
Q9Y3I0 Q8IWT0
Q9Y3I0 Q92499
Q8IWT0 Q92499
Q16520 Q9Y2D1
Q16520 P17275
Q16520 P53567
Q16520 P49716
Q16520 Q15744
Q16520 Q16534
Q16520 Q10586
Q16520 Q14494
Q16520 0000443103
Q16520 Q9NR55
Q9NR55 Q9BYV9
Q9NR55 P53567
Q9NR55 P49716
Q9NR55 Q15744
Q9NR55 P17275
Q9NR55 Q9ULX9
Q9NR55 O15525
Q9NR55 Q16534
Q9NR55 Q10586
Q9NR55 O43889
P17275 Q8N1L9
O00287 O14593
O00287 P48382
O14593 P48382
P49069 O00258
P49069 O43681
O00258 O43681
Q15744 Q9Y2D1
Q15744 Q8N1L9
Q9ULX9 Q8N1L9
Q9ULX9 Q9BYV9
O15525 Q9BYV9
P07766 A0A5B9
P07766 P09693
P07766 P04234
P07766 P01848
P07766 P20963
P07766 P01850
P07766 B7Z8K6
P07766 P0CF51
P07766 P03986
A0A5B9 P09693
A0A5B9 P04234
A0A5B9 P01848
A0A5B9 P20963
P09693 P04234
P09693 P01848
P09693 P20963
P09693 P01850
P09693 B7Z8K6
P09693 P0CF51
P09693 P03986
P04234 P01848
P04234 P20963
P04234 P01850
P01848 P20963
P01848 P01850
P20963 P01850
P20963 B7Z8K6
P20963 P0CF51
P20963 P03986
Q14442 Q92535
Q14442 Q9BRB3
Q14442 P57054
Q14442 Q3MUY2
Q14442 P37287
Q92535 Q9BRB3
Q92535 P57054
Q92535 Q3MUY2
Q92535 P37287
Q9BRB3 P57054
Q9BRB3 Q3MUY2
Q9BRB3 P37287
P57054 Q3MUY2
P57054 P37287
Q3MUY2 P37287
Q92643 Q9H490
Q92643 Q969N2
Q92643 O43292
Q92643 Q96S52
Q9H490 Q969N2
Q9H490 O43292
Q9H490 Q96S52
Q969N2 O43292
Q969N2 Q96S52
O43292 Q96S52
Q8N1L9 P53567
Q8N1L9 Q10586
Q8N1L9 Q16534
P53567 Q9Y2D1
Q9NS37 Q99941
O75444 Q9BYV9
Q9Y5Q3 Q9BYV9
Q14494 0000443103
Q14494 Q9BYV9
0000443103 Q9BYV9
Q9Y4A8 Q9BYV9
B7Z8K6 P0CF51
B7Z8K6 P03986
P00338 P07195
P18850 Q99941
P18850 P17861
Q99941 P17861
Q8N9N2 Q9H1I8
Q8N9N2 Q8N3C0
Q9H1I8 Q8N3C0
Q9H1I8 Q15650
Q8N3C0 Q15650
Q9BWT6 Q9P2W1
Q9H974 Q9BXR0
Q969W0 O15270
Q969W0 O15269
Q969W0 597326
Q969W0 Q9NUV7
O15270 O15269
O15270 597326
O15270 Q8NFR3
O15269 597326
O15269 Q8NFR3
O15269 Q9NUV7
597326 Q8NFR3
597326 Q9NUV7
597326 Q9H1K1
597326 Q9HD34
597326 Q9Y697
597326 Q6P4F2
597326 Q16595
P46060 P63279
Q8NFR3 Q9NUV7
Q96E22 Q86SQ9
P01732 P10966
P01880 P01834
P01880 P0CG04
P01880 P0CG05
P01880 P0DOY3
P01880 P0CF74
P01880 A0M8Q6
P01834 P01871
P01834 P01857
P01834 P01859
P01834 P01860
P01834 P01861
P01834 P01876
P01834 P01877
P01834 P01854
O94864 Q86TJ2
O94864 Q15393
O94864 Q9BWJ5
O94864 Q96BN2
O94864 Q8NEM7
Q86TJ2 Q15393
Q86TJ2 Q9BWJ5
Q86TJ2 Q96BN2
Q86TJ2 Q8NEM7
Q15393 Q9BWJ5
Q15393 Q96BN2
Q15393 Q8NEM7
Q15393 P08579
Q15393 Q15427
Q15393 Q13435
Q15393 M14387
Q15393 Q15428
Q15393 P09234
Q15393 139356
Q15393 P09012
Q15393 P08621
Q15393 URS00006A1489
Q15393 Q15459
Q15393 P09661
Q15393 Q7RTV0
Q15393 Q9Y3B4
Q15393 Q12874
Q15393 O94906
Q15393 URS0000715A86
Q15393 Q8WWY3
Q15393 Q53GS9
Q15393 P62310
Q15393 Q9BTD8
Q15393 URS0000631BD4
Q15393 O43395
Q15393 O75643
Q15393 Q15029
Q15393 URS00006767A8
Q15393 Q6P2Q9
Q15393 Q9Y4Z0
Q15393 Q9BUQ8
Q15393 Q8WVK2
Q15393 Q9Y333
Q15393 P83876
Q15393 Q9UK45
Q15393 O43290
Q15393 P62312
Q15393 Q96DI7
Q15393 P55769
Q15393 Q9Y4Y9
Q15393 O43172
Q15393 O95777
Q15393 Q8IYB3
Q15393 Q9UNP9
Q15393 Q9HCS7
Q15393 P41223
Q15393 Q13573
Q15393 Q9NW64
Q15393 URS000075BAAE
Q15393 Q13356
Q15393 O60306
Q15393 Q9BZJ0
Q15393 O60870
Q15393 Q9HCG8
Q15393 Q6UX04
Q15393 Q9UQ35
Q15393 O15541
Q15393 Q8WUA2
Q15393 Q9Y3C6
Q15393 O60231
Q15393 O60508
Q15393 O95926
Q15393 Q7L014
Q15393 O43719
Q9BWJ5 Q96BN2
Q9BWJ5 Q8NEM7
Q9BWJ5 P08579
Q9BWJ5 Q15427
Q9BWJ5 Q13435
Q9BWJ5 M14387
Q9BWJ5 Q15428
Q9BWJ5 P09234
Q9BWJ5 139356
Q9BWJ5 P09012
Q9BWJ5 P08621
Q9BWJ5 URS00006A1489
Q9BWJ5 Q15459
Q9BWJ5 P09661
Q9BWJ5 Q7RTV0
Q9BWJ5 Q9Y3B4
Q9BWJ5 Q12874
Q9BWJ5 O94906
Q9BWJ5 URS0000715A86
Q9BWJ5 Q8WWY3
Q9BWJ5 Q53GS9
Q9BWJ5 P62310
Q9BWJ5 Q9BTD8
Q9BWJ5 URS0000631BD4
Q9BWJ5 O43395
Q9BWJ5 O75643
Q9BWJ5 Q15029
Q9BWJ5 URS00006767A8
Q9BWJ5 Q6P2Q9
Q9BWJ5 Q9Y4Z0
Q9BWJ5 Q9BUQ8
Q9BWJ5 Q8WVK2
Q9BWJ5 Q9Y333
Q9BWJ5 P83876
Q9BWJ5 Q9UK45
Q9BWJ5 O43290
Q9BWJ5 P62312
Q9BWJ5 Q96DI7
Q9BWJ5 P55769
Q9BWJ5 Q9Y4Y9
Q9BWJ5 O43172
Q9BWJ5 O95777
Q9BWJ5 Q8IYB3
Q9BWJ5 Q9UNP9
Q9BWJ5 Q9HCS7
Q9BWJ5 P41223
Q9BWJ5 Q13573
Q9BWJ5 Q9NW64
Q9BWJ5 URS000075BAAE
Q9BWJ5 Q13356
Q9BWJ5 O60306
Q9BWJ5 Q9BZJ0
Q9BWJ5 O60870
Q9BWJ5 Q9HCG8
Q9BWJ5 Q6UX04
Q9BWJ5 Q9UQ35
Q9BWJ5 O15541
Q9BWJ5 Q8WUA2
Q9BWJ5 Q9Y3C6
Q9BWJ5 O60231
Q9BWJ5 O60508
Q9BWJ5 O95926
Q9BWJ5 Q7L014
Q9BWJ5 O43719
Q96BN2 Q8NEM7
Q4LE39 Q9HCU9
Q4LE39 Q5PSV4
Q4LE39 Q9H7L9
Q4LE39 Q9H160
Q4LE39 Q9H0E3
Q4LE39 Q9HAJ7
Q4LE39 Q9UK53
Q4LE39 O75446
Q4LE39 P29374
Q4LE39 Q96ST3
Q4LE39 Q8NFU7
Q4LE39 Q9NP50
Q4LE39 O75182
Q9HCU9 Q5PSV4
Q9HCU9 Q9H7L9
Q9HCU9 Q9H160
Q9HCU9 Q9H0E3
Q9HCU9 Q9HAJ7
Q9HCU9 Q9UK53
Q9HCU9 O75446
Q9HCU9 P29374
Q9HCU9 Q96ST3
Q9HCU9 Q8NFU7
Q9HCU9 Q9NP50
Q9HCU9 O75182
Q5PSV4 Q9H7L9
Q5PSV4 Q9H160
Q5PSV4 Q9H0E3
Q5PSV4 Q9HAJ7
Q5PSV4 Q9UK53
Q5PSV4 O75446
Q5PSV4 P29374
Q5PSV4 Q96ST3
Q5PSV4 Q8NFU7
Q5PSV4 Q9NP50
Q5PSV4 O75182
Q9H7L9 Q9H160
Q9H7L9 Q9H0E3
Q9H7L9 Q9HAJ7
Q9H7L9 Q9UK53
Q9H7L9 O75446
Q9H7L9 P29374
Q9H7L9 Q96ST3
Q9H7L9 Q8NFU7
Q9H7L9 Q9NP50
Q9H7L9 O75182
Q9H160 Q9H0E3
Q9H160 Q9HAJ7
Q9H160 Q9UK53
Q9H160 O75446
Q9H160 P29374
Q9H160 Q96ST3
Q9H160 Q8NFU7
Q9H160 Q9NP50
Q9H160 O75182
Q9H0E3 Q9HAJ7
Q9H0E3 Q9UK53
Q9H0E3 O75446
Q9H0E3 P29374
Q9H0E3 Q96ST3
Q9H0E3 Q8NFU7
Q9H0E3 Q9NP50
Q9H0E3 O75182
Q9HAJ7 Q9UK53
Q9HAJ7 O75446
Q9HAJ7 P29374
Q9HAJ7 Q96ST3
Q9HAJ7 Q8NFU7
Q9HAJ7 Q9NP50
Q9HAJ7 O75182
Q9UK53 O75446
Q9UK53 P29374
Q9UK53 Q96ST3
Q9UK53 Q8NFU7
Q9UK53 Q9NP50
Q9UK53 O75182
O75446 P29374
O75446 Q96ST3
O75446 Q8NFU7
O75446 Q9NP50
O75446 O75182
P29374 Q96ST3
P29374 Q8NFU7
P29374 Q9NP50
P29374 O75182
Q96ST3 Q8NFU7
Q96ST3 Q9NP50
Q8NFU7 Q9NP50
Q14697 P14314
0000225009 Q3T906
0000225009 0000225008
0000225009 Q9UJJ9
Q3T906 0000225008
Q3T906 Q9UJJ9
0000225008 Q9UJJ9
Q9H3K6 O76003
Q86SX6 Q9Y3E2
Q86SX6 Q53S33
Q9H1K1 Q9HD34
Q9H1K1 Q9Y697
Q9H1K1 Q6P4F2
Q9H1K1 Q16595
Q9HD34 Q9Y697
Q9HD34 Q6P4F2
Q9HD34 Q16595
Q9Y697 Q6P4F2
Q9Y697 Q16595
Q6P4F2 Q16595
Q86SZ2 P0DI81
Q86SZ2 O43617
Q86SZ2 A5PLN9
Q86SZ2 P48553
Q86SZ2 Q96Q05
Q86SZ2 Q9Y296
Q86SZ2 Q8IUR0
Q86SZ2 Q9Y5R8
Q86SZ2 Q9UL33
Q86SZ2 P0DI82
P0DI81 O43617
P0DI81 A5PLN9
P0DI81 P48553
P0DI81 Q96Q05
P0DI81 Q9Y296
P0DI81 Q8IUR0
P0DI81 Q9Y5R8
P0DI81 Q9UL33
P0DI81 Q7Z392
P0DI81 Q9Y2L5
P0DI81 O75865
P0DI81 Q8WVT3
O43617 A5PLN9
O43617 P48553
O43617 Q96Q05
O43617 Q9Y296
O43617 Q8IUR0
O43617 Q9Y5R8
O43617 Q9UL33
O43617 P0DI82
O43617 Q7Z392
O43617 Q9Y2L5
O43617 O75865
O43617 Q8WVT3
A5PLN9 P48553
A5PLN9 Q96Q05
A5PLN9 Q9Y296
A5PLN9 Q8IUR0
A5PLN9 Q9Y5R8
A5PLN9 Q9UL33
A5PLN9 P0DI82
P48553 Q96Q05
P48553 Q9Y296
P48553 Q8IUR0
P48553 Q9Y5R8
P48553 Q9UL33
P48553 P0DI82
Q96Q05 Q9Y296
Q96Q05 Q8IUR0
Q96Q05 Q9Y5R8
Q96Q05 Q9UL33
Q96Q05 P0DI82
Q9Y296 Q8IUR0
Q9Y296 Q9Y5R8
Q9Y296 Q9UL33
Q9Y296 P0DI82
Q9Y296 Q7Z392
Q9Y296 Q9Y2L5
Q9Y296 O75865
Q9Y296 Q8WVT3
Q8IUR0 Q9Y5R8
Q8IUR0 Q9UL33
Q8IUR0 P0DI82
Q8IUR0 Q7Z392
Q8IUR0 Q9Y2L5
Q8IUR0 O75865
Q8IUR0 Q8WVT3
Q9Y5R8 Q9UL33
Q9Y5R8 P0DI82
Q9Y5R8 Q7Z392
Q9Y5R8 Q9Y2L5
Q9Y5R8 O75865
Q9Y5R8 Q8WVT3
Q9UL33 P0DI82
Q9UL33 Q7Z392
Q9UL33 Q9Y2L5
Q9UL33 O75865
Q9UL33 Q8WVT3
P0DI82 Q7Z392
P0DI82 Q9Y2L5
P0DI82 O75865
P0DI82 Q8WVT3
Q7Z392 Q9Y2L5
Q7Z392 O75865
Q7Z392 Q8WVT3
Q9Y2L5 O75865
Q9Y2L5 Q8WVT3
O75865 Q8WVT3
P38606 Q99437
P38606 Q15904
P38606 Q8NEY4
P38606 Q96A05
P38606 P21281
P38606 P36543
P38606 Q8N8Y2
P38606 Q9UI12
P38606 O15342
P38606 Q9Y487
P38606 P27449
P38606 Q8NHE4
P38606 P61421
P38606 Q96LB4
P38606 P21283
P38606 O75787
P38606 Q9Y5K8
P38606 Q6P5S7
P38606 Q16864
P38606 O75348
P38606 O95670
P38606 P15313
P38606 Q13488
P38606 Q9HBG4
P38606 Q93050
Q99437 Q15904
Q99437 Q8NEY4
Q99437 Q96A05
Q99437 P21281
Q99437 P36543
Q99437 Q8N8Y2
Q99437 Q9UI12
Q99437 O15342
Q99437 Q9Y487
Q99437 P27449
Q99437 Q8NHE4
Q99437 P61421
Q99437 Q96LB4
Q99437 P21283
Q99437 O75787
Q99437 Q9Y5K8
Q99437 Q6P5S7
Q99437 Q16864
Q99437 O75348
Q99437 O95670
Q99437 P15313
Q99437 Q13488
Q99437 Q9HBG4
Q99437 Q93050
Q15904 Q8NEY4
Q15904 Q96A05
Q15904 P21281
Q15904 P36543
Q15904 Q8N8Y2
Q15904 Q9UI12
Q15904 O15342
Q15904 Q9Y487
Q15904 P27449
Q15904 Q8NHE4
Q15904 P61421
Q15904 Q96LB4
Q15904 P21283
Q15904 O75787
Q15904 Q9Y5K8
Q15904 Q6P5S7
Q15904 Q16864
Q15904 O75348
Q15904 O95670
Q15904 P15313
Q15904 Q13488
Q15904 Q9HBG4
Q15904 Q93050
Q8NEY4 Q96A05
Q8NEY4 P21281
Q8NEY4 P36543
Q8NEY4 Q8N8Y2
Q8NEY4 Q9UI12
Q8NEY4 O15342
Q8NEY4 Q9Y487
Q8NEY4 P27449
Q8NEY4 Q8NHE4
Q8NEY4 P61421
Q8NEY4 Q96LB4
Q8NEY4 P21283
Q8NEY4 O75787
Q8NEY4 Q9Y5K8
Q8NEY4 Q6P5S7
Q8NEY4 Q16864
Q8NEY4 O75348
Q8NEY4 O95670
Q8NEY4 P15313
Q8NEY4 Q13488
Q8NEY4 Q9HBG4
Q8NEY4 Q93050
Q96A05 P21281
Q96A05 P36543
Q96A05 Q8N8Y2
Q96A05 Q9UI12
Q96A05 O15342
Q96A05 Q9Y487
Q96A05 P27449
Q96A05 Q8NHE4
Q96A05 P61421
Q96A05 Q96LB4
Q96A05 P21283
Q96A05 O75787
Q96A05 Q9Y5K8
Q96A05 Q6P5S7
Q96A05 Q16864
Q96A05 O75348
Q96A05 O95670
Q96A05 P15313
Q96A05 Q13488
Q96A05 Q9HBG4
Q96A05 Q93050
P21281 P36543
P21281 Q8N8Y2
P21281 Q9UI12
P21281 O15342
P21281 Q9Y487
P21281 P27449
P21281 Q8NHE4
P21281 P61421
P21281 Q96LB4
P21281 P21283
P21281 O75787
P21281 Q9Y5K8
P21281 Q6P5S7
P21281 Q16864
P21281 O75348
P21281 O95670
P21281 P15313
P21281 Q13488
P21281 Q9HBG4
P21281 Q93050
P36543 Q8N8Y2
P36543 Q9UI12
P36543 O15342
P36543 Q9Y487
P36543 P27449
P36543 Q8NHE4
P36543 P61421
P36543 Q96LB4
P36543 P21283
P36543 O75787
P36543 Q9Y5K8
P36543 Q6P5S7
P36543 Q16864
P36543 O75348
P36543 O95670
P36543 P15313
P36543 Q13488
P36543 Q9HBG4
P36543 Q93050
Q8N8Y2 Q9UI12
Q8N8Y2 O15342
Q8N8Y2 Q9Y487
Q8N8Y2 P27449
Q8N8Y2 Q8NHE4
Q8N8Y2 P61421
Q8N8Y2 Q96LB4
Q8N8Y2 P21283
Q8N8Y2 O75787
Q8N8Y2 Q9Y5K8
Q8N8Y2 Q6P5S7
Q8N8Y2 Q16864
Q8N8Y2 O75348
Q8N8Y2 O95670
Q8N8Y2 P15313
Q8N8Y2 Q13488
Q8N8Y2 Q9HBG4
Q8N8Y2 Q93050
Q9UI12 O15342
Q9UI12 Q9Y487
Q9UI12 P27449
Q9UI12 Q8NHE4
Q9UI12 P61421
Q9UI12 Q96LB4
Q9UI12 P21283
Q9UI12 O75787
Q9UI12 Q9Y5K8
Q9UI12 Q6P5S7
Q9UI12 Q16864
Q9UI12 O75348
Q9UI12 O95670
Q9UI12 P15313
Q9UI12 Q13488
Q9UI12 Q9HBG4
Q9UI12 Q93050
O15342 Q9Y487
O15342 P27449
O15342 Q8NHE4
O15342 P61421
O15342 Q96LB4
O15342 P21283
O15342 O75787
O15342 Q9Y5K8
O15342 Q6P5S7
O15342 Q16864
O15342 O75348
O15342 O95670
O15342 P15313
O15342 Q13488
O15342 Q9HBG4
O15342 Q93050
Q9Y487 P27449
Q9Y487 Q8NHE4
Q9Y487 P61421
Q9Y487 Q96LB4
Q9Y487 P21283
Q9Y487 O75787
Q9Y487 Q9Y5K8
Q9Y487 Q6P5S7
Q9Y487 Q16864
Q9Y487 O75348
Q9Y487 O95670
Q9Y487 P15313
P27449 Q8NHE4
P27449 P61421
P27449 Q96LB4
P27449 P21283
P27449 O75787
P27449 Q9Y5K8
P27449 Q6P5S7
P27449 Q16864
P27449 O75348
P27449 O95670
P27449 P15313
P27449 Q13488
P27449 Q9HBG4
P27449 Q93050
Q8NHE4 P61421
Q8NHE4 Q96LB4
Q8NHE4 P21283
Q8NHE4 O75787
Q8NHE4 Q9Y5K8
Q8NHE4 Q6P5S7
Q8NHE4 Q16864
Q8NHE4 O75348
Q8NHE4 O95670
Q8NHE4 P15313
Q8NHE4 Q13488
Q8NHE4 Q9HBG4
Q8NHE4 Q93050
P61421 Q96LB4
P61421 P21283
P61421 O75787
P61421 Q9Y5K8
P61421 Q6P5S7
P61421 Q16864
P61421 O75348
P61421 O95670
P61421 P15313
P61421 Q13488
P61421 Q9HBG4
P61421 Q93050
Q96LB4 P21283
Q96LB4 O75787
Q96LB4 Q9Y5K8
Q96LB4 Q6P5S7
Q96LB4 Q16864
Q96LB4 O75348
Q96LB4 O95670
Q96LB4 P15313
Q96LB4 Q13488
Q96LB4 Q9HBG4
Q96LB4 Q93050
P21283 O75787
P21283 Q9Y5K8
P21283 Q6P5S7
P21283 Q16864
P21283 O75348
P21283 O95670
P21283 P15313
P21283 Q13488
P21283 Q9HBG4
P21283 Q93050
O75787 Q9Y5K8
O75787 Q6P5S7
O75787 Q16864
O75787 O75348
O75787 O95670
O75787 P15313
O75787 Q13488
O75787 Q9HBG4
O75787 Q93050
Q9Y5K8 Q6P5S7
Q9Y5K8 Q16864
Q9Y5K8 O75348
Q9Y5K8 O95670
Q9Y5K8 P15313
Q9Y5K8 Q13488
Q9Y5K8 Q9HBG4
Q9Y5K8 Q93050
Q6P5S7 Q16864
Q6P5S7 O75348
Q6P5S7 O95670
Q6P5S7 P15313
Q6P5S7 Q13488
Q6P5S7 Q9HBG4
Q6P5S7 Q93050
Q16864 O75348
Q16864 O95670
Q16864 P15313
Q16864 Q13488
Q16864 Q9HBG4
Q16864 Q93050
O75348 O95670
O75348 P15313
O75348 Q13488
O75348 Q9HBG4
O75348 Q93050
O95670 P15313
O95670 Q13488
O95670 Q9HBG4
O95670 Q93050
P15313 Q13488
P15313 Q9HBG4
P15313 Q93050
P0CG04 P01871
P0CG04 P01857
P0CG04 P01859
P0CG04 P01860
P0CG04 P01861
P0CG04 P01876
P0CG04 P01877
P0CG04 P01854
P0CG05 P01871
P0CG05 P01857
P0CG05 P01859
P0CG05 P01860
P0CG05 P01861
P0CG05 P01876
P0CG05 P01877
P0CG05 P01854
P0DOY3 P01871
P0DOY3 P01857
P0DOY3 P01859
P0DOY3 P01860
P0DOY3 P01861
P0DOY3 P01876
P0DOY3 P01877
P0DOY3 P01854
P0CF74 P01871
P0CF74 P01857
P0CF74 P01859
P0CF74 P01860
P0CF74 P01861
P0CF74 P01876
P0CF74 P01877
P0CF74 P01854
A0M8Q6 P01871
A0M8Q6 P01857
A0M8Q6 P01859
A0M8Q6 P01860
A0M8Q6 P01861
A0M8Q6 P01876
A0M8Q6 P01877
A0M8Q6 P01854
Q9Y284 Q96A33
Q6ZW49 Q8NEZ4
Q6ZW49 Q14686
Q6ZW49 O15550
Q6ZW49 Q9BTK6
Q6ZW49 O14686
Q8NEZ4 Q14686
Q8NEZ4 O15550
Q8NEZ4 Q9BTK6
Q14686 O15550
Q14686 Q9BTK6
Q14686 O14686
O15550 Q9BTK6
O15550 O14686
Q9BTK6 O14686
Q9BYV9 O60675
Q9P0U4 O15047
Q9P0U4 Q6UXN9
Q9P0U4 Q96IK1
Q9P0U4 Q8NFC6
Q9P0U4 Q9UPS6
O15047 Q6UXN9
Q6UXN9 Q96IK1
Q6UXN9 Q8NFC6
Q6UXN9 Q9UPS6
Q96IK1 Q8NFC6
Q96IK1 Q9UPS6
Q8NFC6 Q9UPS6
Q9UJA3 Q9NXL9
O94905 O75477
P11498 P48163
P11498 P40925
P48163 P40925
O14964 O75886
O14964 Q92783
Q99816 Q9UK41
Q99816 Q9H7P6
Q99816 Q8NEZ2
Q99816 A5D8V6
Q99816 Q96EY5
Q99816 Q86XT2
Q99816 Q9H9H4
Q99816 Q9NZ09
Q9UK41 Q9H7P6
Q9UK41 Q8NEZ2
Q9UK41 A5D8V6
Q9UK41 Q96EY5
Q9UK41 Q86XT2
Q9UK41 Q9H9H4
Q9UK41 Q9NZ09
Q9H7P6 Q8NEZ2
Q9H7P6 Q9H9H4
Q9H7P6 A5D8V6
Q9H7P6 Q86XT2
Q8NEZ2 Q96EY5
Q8NEZ2 Q9NZ09
A5D8V6 Q96EY5
A5D8V6 Q9NZ09
Q96EY5 Q86XT2
Q96EY5 Q9H9H4
Q86XT2 Q9NZ09
Q9H9H4 Q9NZ09
Q9Y6A9 Q15005
Q9Y6A9 Q9BY50
Q9Y6A9 P61009
Q9Y6A9 P67812
Q15005 Q9BY50
Q15005 P61009
Q15005 P67812
Q9BY50 P61009
P61009 P67812
Q96RQ1 Q9Y282
O00411 Q00059
O00411 Q9H5Q4
Q00059 Q9H5Q4
P04085 P01127
P04085 P16234
P04085 P09619
P01127 P09619
P01127 P16234
Q9BYM8 Q9H0F6
Q9BYM8 Q96EP0
Q9H0F6 Q96EP0
P35244 P15927
P35244 P27694
P35244 Q13156
P15927 P27694
P27694 Q13156
O43929 Q13415
O43929 Q9Y5N6
O43929 Q13416
O43929 O43913
O43929 Q9UBD5
Q13415 Q9Y5N6
Q13415 Q13416
Q13415 O43913
Q13415 Q9UBD5
Q9Y5N6 Q13416
Q9Y5N6 O43913
Q9Y5N6 Q9UBD5
Q13416 O43913
Q13416 Q9UBD5
O43913 Q9UBD5
Q86W42 Q86V81
Q86W42 P84090
Q86W42 Q6I9Y2
Q86W42 Q9Y3Y2
Q86W42 Q13769
Q86W42 Q96FV9
Q86W42 Q9P127
Q86W42 Q96QD9
Q86W42 P82979
Q86W42 Q9BY77
Q86W42 Q96J01
Q86W42 Q8NI27
Q86W42 O75152
Q86W42 O00148
Q86W42 Q13838
Q86V81 P84090
Q86V81 Q6I9Y2
Q86V81 Q9Y3Y2
Q86V81 Q13769
Q86V81 Q96FV9
Q86V81 Q9P127
Q86V81 Q96QD9
Q86V81 P82979
Q86V81 Q9BY77
Q86V81 Q96J01
Q86V81 Q8NI27
Q86V81 O75152
Q86V81 O00148
Q86V81 P61326
Q86V81 Q13838
P84090 Q6I9Y2
P84090 Q9Y3Y2
P84090 Q13769
P84090 Q96FV9
P84090 Q9P127
P84090 Q96QD9
P84090 P82979
P84090 Q9BY77
P84090 Q96J01
P84090 Q8NI27
P84090 O75152
P84090 O00148
P84090 Q13838
Q6I9Y2 Q9Y3Y2
Q6I9Y2 Q13769
Q6I9Y2 Q96FV9
Q6I9Y2 Q9P127
Q6I9Y2 Q96QD9
Q6I9Y2 P82979
Q6I9Y2 Q9BY77
Q6I9Y2 Q96J01
Q6I9Y2 Q8NI27
Q6I9Y2 O75152
Q6I9Y2 O00148
Q6I9Y2 Q13838
Q9Y3Y2 Q13769
Q9Y3Y2 Q96FV9
Q9Y3Y2 Q9P127
Q9Y3Y2 Q96QD9
Q9Y3Y2 P82979
Q9Y3Y2 Q9BY77
Q9Y3Y2 Q96J01
Q9Y3Y2 Q8NI27
Q9Y3Y2 O75152
Q9Y3Y2 O00148
Q9Y3Y2 Q13838
Q13769 Q96FV9
Q13769 Q9P127
Q13769 Q96QD9
Q13769 P82979
Q13769 Q9BY77
Q13769 Q96J01
Q13769 Q8NI27
Q13769 O75152
Q13769 O00148
Q13769 Q13838
Q96FV9 Q9P127
Q96FV9 Q96QD9
Q96FV9 P82979
Q96FV9 Q9BY77
Q96FV9 Q96J01
Q96FV9 Q8NI27
Q96FV9 O75152
Q96FV9 O00148
Q96FV9 Q13838
Q9P127 Q96QD9
Q9P127 P82979
Q9P127 Q9BY77
Q9P127 Q96J01
Q9P127 Q8NI27
Q9P127 O75152
Q9P127 O00148
Q9P127 Q13838
Q96QD9 P82979
Q96QD9 Q9BY77
Q96QD9 Q96J01
Q96QD9 Q8NI27
Q96QD9 O75152
Q96QD9 O00148
Q96QD9 Q13838
P82979 Q9BY77
P82979 Q96J01
P82979 Q8NI27
P82979 O75152
P82979 O00148
P82979 Q13838
Q9BY77 Q96J01
Q9BY77 Q8NI27
Q9BY77 O75152
Q9BY77 O00148
Q9BY77 Q13838
Q96J01 Q8NI27
Q96J01 O75152
Q96J01 O00148
Q96J01 Q13838
Q8NI27 O75152
Q8NI27 O00148
Q8NI27 Q13838
O75152 O00148
O75152 Q13838
Q5JVF3 O60318
Q5JVF3 O15182
Q5JVF3 P41208
O60318 O15182
O60318 P41208
Q8IZD4 Q6P2E9
Q8IZD4 Q96F86
Q8IZD4 Q8IU60
Q8IZD4 P26196
Q8IZD4 Q8IZH2
Q6P2E9 Q96F86
Q6P2E9 Q8IU60
Q6P2E9 P26196
Q6P2E9 Q8IZH2
Q6P2E9 Q9NPI6
Q96F86 Q8IU60
Q96F86 P26196
Q96F86 Q8IZH2
Q96F86 Q9NPI6
Q8IU60 P26196
Q8IU60 Q8IZH2
Q8IU60 Q9NPI6
P26196 Q8IZH2
P26196 Q6Y7W6
P26196 O60573
P26196 O75420
P26196 Q9NPI6
Q8IZH2 Q9NPI6
Q16665 P27540
P27540 Q99814
Q9UJ98 Q8NDV3
Q9UJ98 Q9H4I0
Q9UJ98 O95072
Q8NDV3 Q9H4I0
Q8NDV3 O95072
Q52LA3 Q96GY3
Q52LA3 Q5TKA1
Q52LA3 Q14188
Q52LA3 Q6MZP7
Q52LA3 Q08999
Q52LA3 Q16254
Q52LA3 Q15329
Q52LA3 P10244
Q52LA3 Q08050
Q52LA3 P28749
Q96GY3 Q5TKA1
Q96GY3 Q14188
Q96GY3 Q6MZP7
Q96GY3 Q08999
Q96GY3 Q16254
Q96GY3 Q15329
Q96GY3 P10244
Q96GY3 Q08050
Q96GY3 P28749
Q5TKA1 Q14188
Q5TKA1 Q6MZP7
Q5TKA1 Q08999
Q5TKA1 Q16254
Q5TKA1 Q15329
Q5TKA1 P10244
Q5TKA1 Q08050
Q5TKA1 P28749
Q14188 Q6MZP7
Q14188 Q08999
Q14188 Q16254
Q14188 Q15329
Q14188 P28749
Q6MZP7 Q08999
Q6MZP7 Q16254
Q6MZP7 Q15329
Q6MZP7 P10244
Q6MZP7 Q08050
Q6MZP7 P28749
Q08999 Q16254
Q08999 Q15329
Q16254 Q15329
Q16254 P28749
Q15329 P28749
P10244 Q08050
P24928 P36954
P24928 P52435
P24928 O15514
P24928 P52434
P24928 P61218
P24928 P30876
P24928 P53803
P24928 P62487
P24928 P19387
P24928 P62875
P24928 P0CAP2
P36954 P52435
P36954 O15514
P36954 P52434
P36954 P61218
P36954 P30876
P36954 P53803
P36954 P62487
P36954 P19387
P36954 P62875
P36954 P0CAP2
P52435 O15514
P52435 P52434
P52435 P61218
P52435 P30876
P52435 P53803
P52435 P62487
P52435 P19387
P52435 P62875
P52435 P0CAP2
O15514 P52434
O15514 P61218
O15514 P30876
O15514 P53803
O15514 P62487
O15514 P19387
O15514 P62875
O15514 P0CAP2
P52434 P61218
P52434 P30876
P52434 P53803
P52434 P62487
P52434 P19387
P52434 P62875
P52434 O14802
P52434 Q9NVU0
P52434 Q9BUI4
P52434 Q9NW08
P52434 P0DPB6
P52434 P05423
P52434 Q9Y2Y1
P52434 Q9Y535
P52434 O75575
P52434 Q9BT43
P52434 O15160
P52434 Q9H1D9
P52434 Q9H9Y6
P52434 Q3B726
P52434 Q9GZS1
P52434 O95602
P52434 Q9P1U0
P52434 O15446
P52434 P0CAP2
P52434 O15318
P61218 P30876
P61218 P53803
P61218 P62487
P61218 P19387
P61218 P62875
P61218 O14802
P61218 Q9NVU0
P61218 Q9BUI4
P61218 Q9NW08
P61218 P0DPB6
P61218 P05423
P61218 Q9Y2Y1
P61218 Q9Y535
P61218 O75575
P61218 Q9BT43
P61218 O15160
P61218 Q9H1D9
P61218 Q9H9Y6
P61218 Q3B726
P61218 Q9GZS1
P61218 O95602
P61218 Q9P1U0
P61218 O15446
P61218 P0CAP2
P61218 O15318
P30876 P53803
P30876 P62487
P30876 P19387
P30876 P62875
P30876 P0CAP2
P53803 P62487
P53803 P19387
P53803 P62875
P53803 O14802
P53803 Q9NVU0
P53803 Q9BUI4
P53803 Q9NW08
P53803 P0DPB6
P53803 P05423
P53803 Q9Y2Y1
P53803 Q9Y535
P53803 O75575
P53803 Q9BT43
P53803 O15160
P53803 Q9H1D9
P53803 Q9H9Y6
P53803 Q3B726
P53803 Q9GZS1
P53803 O95602
P53803 Q9P1U0
P53803 O15446
P53803 P0CAP2
P53803 O15318
P62487 P19387
P62487 P62875
P62487 P0CAP2
P19387 P62875
P19387 P0CAP2
P62875 O14802
P62875 Q9NVU0
P62875 Q9BUI4
P62875 Q9NW08
P62875 P0DPB6
P62875 P05423
P62875 Q9Y2Y1
P62875 Q9Y535
P62875 O75575
P62875 Q9BT43
P62875 O15160
P62875 Q9H1D9
P62875 Q9H9Y6
P62875 Q3B726
P62875 Q9GZS1
P62875 O95602
P62875 Q9P1U0
P62875 O15446
P62875 P0CAP2
P62875 O15318
O14802 Q9NVU0
O14802 Q9BUI4
O14802 Q9NW08
O14802 P0DPB6
O14802 P05423
O14802 Q9Y2Y1
O14802 Q9Y535
O14802 O75575
O14802 Q9BT43
O14802 O15160
O14802 Q9H1D9
O14802 O15318
Q9NVU0 Q9BUI4
Q9NVU0 Q9NW08
Q9NVU0 P0DPB6
Q9NVU0 P05423
Q9NVU0 Q9Y2Y1
Q9NVU0 Q9Y535
Q9NVU0 O75575
Q9NVU0 Q9BT43
Q9NVU0 O15160
Q9NVU0 Q9H1D9
Q9NVU0 O15318
Q9BUI4 Q9NW08
Q9BUI4 P0DPB6
Q9BUI4 P05423
Q9BUI4 Q9Y2Y1
Q9BUI4 Q9Y535
Q9BUI4 O75575
Q9BUI4 Q9BT43
Q9BUI4 O15160
Q9BUI4 Q9H1D9
Q9BUI4 O15318
Q9NW08 P0DPB6
Q9NW08 P05423
Q9NW08 Q9Y2Y1
Q9NW08 Q9Y535
Q9NW08 O75575
Q9NW08 Q9BT43
Q9NW08 O15160
Q9NW08 Q9H1D9
Q9NW08 O15318
P0DPB6 P05423
P0DPB6 Q9Y2Y1
P0DPB6 Q9Y535
P0DPB6 O75575
P0DPB6 Q9BT43
P0DPB6 O15160
P0DPB6 Q9H1D9
P0DPB6 Q9H9Y6
P0DPB6 Q3B726
P0DPB6 Q9GZS1
P0DPB6 O95602
P0DPB6 Q9P1U0
P0DPB6 O15446
P0DPB6 O15318
P05423 Q9Y2Y1
P05423 Q9Y535
P05423 O75575
P05423 Q9BT43
P05423 O15160
P05423 Q9H1D9
P05423 O15318
Q9Y2Y1 Q9Y535
Q9Y2Y1 O75575
Q9Y2Y1 Q9BT43
Q9Y2Y1 O15160
Q9Y2Y1 Q9H1D9
Q9Y2Y1 O15318
Q9Y535 O75575
Q9Y535 Q9BT43
Q9Y535 O15160
Q9Y535 Q9H1D9
Q9Y535 O15318
O75575 Q9BT43
O75575 O15160
O75575 Q9H1D9
O75575 O15318
Q9BT43 O15160
Q9BT43 Q9H1D9
O15160 Q9H1D9
O15160 Q9H9Y6
O15160 Q3B726
O15160 Q9GZS1
O15160 O95602
O15160 Q9P1U0
O15160 O15446
O15160 O15318
Q9H1D9 O15318
P78364 P35226
P78364 Q06587
P78364 Q14781
P78364 O00257
P78364 O95503
P78364 O95931
P78364 Q9HC52
P78364 Q99496
P78364 P35227
P35226 Q06587
P35226 Q14781
P35226 Q8IXK0
P35226 Q8NDX5
P35226 O00257
P35226 O95503
P35226 O95931
P35226 Q9HC52
P35226 Q99496
P35226 Q8N488
P35226 Q8IY57
Q06587 Q14781
Q06587 Q8IXK0
Q06587 Q8NDX5
Q06587 O00257
Q06587 O95503
Q06587 O95931
Q06587 Q9HC52
Q06587 Q8IY57
Q06587 Q9BSM1
Q06587 Q8NHM5
Q06587 P63208
Q06587 Q6W2J9
Q06587 Q8WXX7
Q06587 Q86SE9
Q06587 Q8N488
Q06587 P35227
Q06587 Q3KNV8
Q06587 Q9BYE7
Q06587 Q969R5
Q14781 Q8IXK0
Q14781 Q8NDX5
Q14781 Q99496
Q14781 P35227
Q8IXK0 O00257
Q8IXK0 O95503
Q8IXK0 O95931
Q8IXK0 Q9HC52
Q8IXK0 Q99496
Q8IXK0 P35227
Q8NDX5 O00257
Q8NDX5 O95503
Q8NDX5 O95931
Q8NDX5 Q9HC52
Q8NDX5 Q99496
Q8NDX5 P35227
O00257 Q99496
O00257 P35227
O95503 Q99496
O95503 P35227
O95931 Q99496
O95931 P35227
Q9HC52 Q99496
Q9HC52 P35227
Q99496 P35227
Q99496 Q8WXX7
Q99496 Q86SE9
Q99496 Q8N488
Q99496 Q8IY57
Q99496 Q9BSM1
Q99496 Q8NHM5
Q99496 P63208
Q99496 Q6W2J9
Q99496 Q3KNV8
Q99496 Q9BYE7
Q99496 Q969R5
Q99496 Q5H9F3
P35227 Q8IY57
P35227 Q8N488
Q8IY57 Q9BSM1
Q8IY57 Q8NHM5
Q8IY57 P63208
Q8IY57 Q6W2J9
Q8IY57 Q86SE9
Q8IY57 Q8WXX7
Q8IY57 Q3KNV8
Q8IY57 Q9BYE7
Q8IY57 Q969R5
Q9BSM1 Q8NHM5
Q9BSM1 P63208
Q9BSM1 Q6W2J9
Q9BSM1 Q8N488
Q9BSM1 Q5H9F3
Q8NHM5 P63208
Q8NHM5 Q6W2J9
Q8NHM5 Q8N488
Q8NHM5 Q5H9F3
Q8NHM5 Q13616
P63208 Q6W2J9
P63208 Q9UKT8
P63208 Q13616
P63208 P57775
P63208 Q969U6
P63208 Q969H0
P63208 Q14999
P63208 Q8N3Y1
P63208 Q5XUX1
P63208 Q5XX13
P63208 Q9UKB1
P63208 Q6X9E4
P63208 P41002
P63208 Q9UK22
P63208 Q9UK99
P63208 Q9UKT5
P63208 Q9UKT4
P63208 Q9NRD1
P63208 Q9Y3I1
P63208 Q9NRD0
P63208 Q9UK97
P63208 Q9UK96
P63208 Q86XK2
P63208 Q8NCQ5
P63208 Q8IX29
P63208 Q96EF6
P63208 Q8NFZ0
P63208 Q8WWI1
P63208 O94952
P63208 Q8NEZ5
P63208 O75426
P63208 Q8TCJ0
P63208 Q8NI29
P63208 Q9NVF7
P63208 Q8TB52
P63208 Q5XUX0
P63208 Q969P5
P63208 Q7Z6M2
P63208 Q9NWN3
P63208 Q8NEA4
P63208 Q6PIJ6
P63208 Q8N4B4
P63208 Q9UH90
P63208 Q8TF61
P63208 Q6P3S6
P63208 Q4G163
P63208 Q9H4M3
P63208 O75592
P63208 P0C2W1
P63208 Q6PJ61
P63208 Q5MNV8
P63208 Q96FV3
P63208 Q9UKA1
P63208 Q8NEE6
P63208 Q8N1E6
P63208 Q8N461
P63208 Q8N488
P63208 Q9Y297
P63208 Q96CD0
P63208 Q6P050
P63208 Q9H469
P63208 Q9UKA2
P63208 Q8N531
P63208 Q9Y2K7
P63208 Q96ME1
P63208 Q6PCT2
P63208 Q5H9F3
P63208 Q9NXK8
P63208 Q9UJT9
P63208 Q9UKT6
P63208 Q9UF56
P63208 Q96IG2
P63208 Q9UKT7
P63208 Q9UKC9
P63208 Q13309
Q6W2J9 Q8N488
Q8WXX7 Q86SE9
Q8WXX7 Q8N488
Q8WXX7 Q3KNV8
Q86SE9 Q8N488
Q8N488 Q3KNV8
Q8N488 Q9BYE7
Q8N488 Q969R5
Q8N488 Q5H9F3
Q14582 Q9UH92
Q9NPE3 Q9NX24
Q9NPE3 Q9BUR4
Q9NPE3 Q9NY12
Q9NPE3 O60832
Q9NX24 Q9BUR4
Q9NX24 Q9NY12
Q9NX24 O60832
Q9BUR4 Q9NY12
Q9BUR4 O60832
Q9NY12 O60832
Q6P5R6 P50914
Q6P5R6 P61313
Q6P5R6 P61353
Q6P5R6 P36578
Q6P5R6 P18621
Q6P5R6 P49207
Q6P5R6 P61927
Q6P5R6 P46779
Q6P5R6 P83731
Q6P5R6 P47914
Q6P5R6 P62750
Q6P5R6 P46776
Q6P5R6 P62945
Q6P5R6 Q02878
Q6P5R6 P32969
Q6P5R6 P62910
Q6P5R6 P62913
Q6P5R6 P05386
Q6P5R6 P40429
Q6P5R6 URS0000ABD82A
Q6P5R6 P62906
Q6P5R6 P62987
Q6P5R6 Q07020
Q6P5R6 P63173
Q6P5R6 P62917
Q6P5R6 URS000075D341
Q6P5R6 URS00000F9D45
Q6P5R6 P62829
Q6P5R6 P30050
Q6P5R6 Q969Q0
Q6P5R6 Q9UNX3
Q6P5R6 P26373
Q6P5R6 P62888
Q6P5R6 Q9Y3U8
Q6P5R6 P18077
Q6P5R6 P42766
Q6P5R6 P46777
Q6P5R6 P61254
Q6P5R6 P46778
Q6P5R6 P84098
Q6P5R6 P62899
Q6P5R6 P05388
Q6P5R6 P35268
Q6P5R6 P27635
Q6P5R6 P62424
Q6P5R6 P05387
Q6P5R6 P61513
Q6P5R6 P62891
Q6P5R6 Q02543
Q6P5R6 P83881
Q6P5R6 P18124
Q6P5R6 P39023
Q6P5R6 Q96L21
Q6P5R6 Q96EH5
Q6P5R6 Q92901
P50914 P61313
P50914 P61353
P50914 P36578
P50914 P18621
P50914 P49207
P50914 P61927
P50914 P46779
P50914 P83731
P50914 P47914
P50914 P62750
P50914 P46776
P50914 P62945
P50914 Q02878
P50914 P32969
P50914 P62910
P50914 P62913
P50914 P05386
P50914 P40429
P50914 URS0000ABD82A
P50914 P62906
P50914 P62987
P50914 Q07020
P50914 P63173
P50914 P62917
P50914 URS000075D341
P50914 URS00000F9D45
P50914 P62829
P50914 P30050
P50914 Q969Q0
P50914 Q9UNX3
P50914 P26373
P50914 P62888
P50914 Q9Y3U8
P50914 P18077
P50914 P42766
P50914 P46777
P50914 P61254
P50914 P46778
P50914 P84098
P50914 P62899
P50914 P05388
P50914 P35268
P50914 P27635
P50914 P62424
P50914 P05387
P50914 P61513
P50914 P62891
P50914 Q02543
P50914 P83881
P50914 P18124
P50914 P39023
P50914 Q96L21
P50914 Q96EH5
P50914 Q92901
P61313 P61353
P61313 P36578
P61313 P18621
P61313 P49207
P61313 P61927
P61313 P46779
P61313 P83731
P61313 P47914
P61313 P62750
P61313 P46776
P61313 P62945
P61313 Q02878
P61313 P32969
P61313 P62910
P61313 P62913
P61313 P05386
P61313 P40429
P61313 URS0000ABD82A
P61313 P62906
P61313 P62987
P61313 Q07020
P61313 P63173
P61313 P62917
P61313 URS000075D341
P61313 URS00000F9D45
P61313 P62829
P61313 P30050
P61313 Q969Q0
P61313 Q9UNX3
P61313 P26373
P61313 P62888
P61313 Q9Y3U8
P61313 P18077
P61313 P42766
P61313 P46777
P61313 P61254
P61313 P46778
P61313 P84098
P61313 P62899
P61313 P05388
P61313 P35268
P61313 P27635
P61313 P62424
P61313 P05387
P61313 P61513
P61313 P62891
P61313 Q02543
P61313 P83881
P61313 P18124
P61313 P39023
P61313 Q96L21
P61313 Q96EH5
P61313 Q92901
P61353 P36578
P61353 P18621
P61353 P49207
P61353 P61927
P61353 P46779
P61353 P83731
P61353 P47914
P61353 P62750
P61353 P46776
P61353 P62945
P61353 Q02878
P61353 P32969
P61353 P62910
P61353 P62913
P61353 P05386
P61353 P40429
P61353 URS0000ABD82A
P61353 P62906
P61353 P62987
P61353 Q07020
P61353 P63173
P61353 P62917
P61353 URS000075D341
P61353 URS00000F9D45
P61353 P62829
P61353 P30050
P61353 Q969Q0
P61353 Q9UNX3
P61353 P26373
P61353 P62888
P61353 Q9Y3U8
P61353 P18077
P61353 P42766
P61353 P46777
P61353 P61254
P61353 P46778
P61353 P84098
P61353 P62899
P61353 P05388
P61353 P35268
P61353 P27635
P61353 P62424
P61353 P05387
P61353 P61513
P61353 P62891
P61353 Q02543
P61353 P83881
P61353 P18124
P61353 P39023
P61353 Q96L21
P61353 Q96EH5
P61353 Q92901
P36578 P18621
P36578 P49207
P36578 P61927
P36578 P46779
P36578 P83731
P36578 P47914
P36578 P62750
P36578 P46776
P36578 P62945
P36578 Q02878
P36578 P32969
P36578 P62910
P36578 P62913
P36578 P05386
P36578 P40429
P36578 URS0000ABD82A
P36578 P62906
P36578 P62987
P36578 Q07020
P36578 P63173
P36578 P62917
P36578 URS000075D341
P36578 URS00000F9D45
P36578 P62829
P36578 P30050
P36578 Q969Q0
P36578 Q9UNX3
P36578 P26373
P36578 P62888
P36578 Q9Y3U8
P36578 P18077
P36578 P42766
P36578 P46777
P36578 P61254
P36578 P46778
P36578 P84098
P36578 P62899
P36578 P05388
P36578 P35268
P36578 P27635
P36578 P62424
P36578 P05387
P36578 P61513
P36578 P62891
P36578 Q02543
P36578 P83881
P36578 P18124
P36578 P39023
P36578 Q96L21
P36578 Q96EH5
P36578 Q92901
P18621 P49207
P18621 P61927
P18621 P46779
P18621 P83731
P18621 P47914
P18621 P62750
P18621 P46776
P18621 P62945
P18621 Q02878
P18621 P32969
P18621 P62910
P18621 P62913
P18621 P05386
P18621 P40429
P18621 URS0000ABD82A
P18621 P62906
P18621 P62987
P18621 Q07020
P18621 P63173
P18621 P62917
P18621 URS000075D341
P18621 URS00000F9D45
P18621 P62829
P18621 P30050
P18621 Q969Q0
P18621 Q9UNX3
P18621 P26373
P18621 P62888
P18621 Q9Y3U8
P18621 P18077
P18621 P42766
P18621 P46777
P18621 P61254
P18621 P46778
P18621 P84098
P18621 P62899
P18621 P05388
P18621 P35268
P18621 P27635
P18621 P62424
P18621 P05387
P18621 P61513
P18621 P62891
P18621 Q02543
P18621 P83881
P18621 P18124
P18621 P39023
P18621 Q96L21
P18621 Q96EH5
P18621 Q92901
P49207 P61927
P49207 P46779
P49207 P83731
P49207 P47914
P49207 P62750
P49207 P46776
P49207 P62945
P49207 Q02878
P49207 P32969
P49207 P62910
P49207 P62913
P49207 P05386
P49207 P40429
P49207 URS0000ABD82A
P49207 P62906
P49207 P62987
P49207 Q07020
P49207 P63173
P49207 P62917
P49207 URS000075D341
P49207 URS00000F9D45
P49207 P62829
P49207 P30050
P49207 Q969Q0
P49207 Q9UNX3
P49207 P26373
P49207 P62888
P49207 Q9Y3U8
P49207 P18077
P49207 P42766
P49207 P46777
P49207 P61254
P49207 P46778
P49207 P84098
P49207 P62899
P49207 P05388
P49207 P35268
P49207 P27635
P49207 P62424
P49207 P05387
P49207 P61513
P49207 P62891
P49207 Q02543
P49207 P83881
P49207 P18124
P49207 P39023
P49207 Q96L21
P49207 Q96EH5
P49207 Q92901
P61927 P46779
P61927 P83731
P61927 P47914
P61927 P62750
P61927 P46776
P61927 P62945
P61927 Q02878
P61927 P32969
P61927 P62910
P61927 P62913
P61927 P05386
P61927 P40429
P61927 URS0000ABD82A
P61927 P62906
P61927 P62987
P61927 Q07020
P61927 P63173
P61927 P62917
P61927 URS000075D341
P61927 URS00000F9D45
P61927 P62829
P61927 P30050
P61927 Q969Q0
P61927 Q9UNX3
P61927 P26373
P61927 P62888
P61927 Q9Y3U8
P61927 P18077
P61927 P42766
P61927 P46777
P61927 P61254
P61927 P46778
P61927 P84098
P61927 P62899
P61927 P05388
P61927 P35268
P61927 P27635
P61927 P62424
P61927 P05387
P61927 P61513
P61927 P62891
P61927 Q02543
P61927 P83881
P61927 P18124
P61927 P39023
P61927 Q96L21
P61927 Q96EH5
P61927 Q92901
P46779 P83731
P46779 P47914
P46779 P62750
P46779 P46776
P46779 P62945
P46779 Q02878
P46779 P32969
P46779 P62910
P46779 P62913
P46779 P05386
P46779 P40429
P46779 URS0000ABD82A
P46779 P62906
P46779 P62987
P46779 Q07020
P46779 P63173
P46779 P62917
P46779 URS000075D341
P46779 URS00000F9D45
P46779 P62829
P46779 P30050
P46779 Q969Q0
P46779 Q9UNX3
P46779 P26373
P46779 P62888
P46779 Q9Y3U8
P46779 P18077
P46779 P42766
P46779 P46777
P46779 P61254
P46779 P46778
P46779 P84098
P46779 P62899
P46779 P05388
P46779 P35268
P46779 P27635
P46779 P62424
P46779 P05387
P46779 P61513
P46779 P62891
P46779 Q02543
P46779 P83881
P46779 P18124
P46779 P39023
P46779 Q96L21
P46779 Q96EH5
P46779 Q92901
P83731 P47914
P83731 P62750
P83731 P46776
P83731 P62945
P83731 Q02878
P83731 P32969
P83731 P62910
P83731 P62913
P83731 P05386
P83731 P40429
P83731 URS0000ABD82A
P83731 P62906
P83731 P62987
P83731 Q07020
P83731 P63173
P83731 P62917
P83731 URS000075D341
P83731 URS00000F9D45
P83731 P62829
P83731 P30050
P83731 Q969Q0
P83731 Q9UNX3
P83731 P26373
P83731 P62888
P83731 Q9Y3U8
P83731 P18077
P83731 P42766
P83731 P46777
P83731 P61254
P83731 P46778
P83731 P84098
P83731 P62899
P83731 P05388
P83731 P35268
P83731 P27635
P83731 P62424
P83731 P05387
P83731 P61513
P83731 P62891
P83731 Q02543
P83731 P83881
P83731 P18124
P83731 P39023
P83731 Q96L21
P83731 Q96EH5
P83731 Q92901
P47914 P62750
P47914 P46776
P47914 P62945
P47914 Q02878
P47914 P32969
P47914 P62910
P47914 P62913
P47914 P05386
P47914 P40429
P47914 URS0000ABD82A
P47914 P62906
P47914 P62987
P47914 Q07020
P47914 P63173
P47914 P62917
P47914 URS000075D341
P47914 URS00000F9D45
P47914 P62829
P47914 P30050
P47914 Q969Q0
P47914 Q9UNX3
P47914 P26373
P47914 P62888
P47914 Q9Y3U8
P47914 P18077
P47914 P42766
P47914 P46777
P47914 P61254
P47914 P46778
P47914 P84098
P47914 P62899
P47914 P05388
P47914 P35268
P47914 P27635
P47914 P62424
P47914 P05387
P47914 P61513
P47914 P62891
P47914 Q02543
P47914 P83881
P47914 P18124
P47914 P39023
P47914 Q96L21
P47914 Q96EH5
P47914 Q92901
P62750 P46776
P62750 P62945
P62750 Q02878
P62750 P32969
P62750 P62910
P62750 P62913
P62750 P05386
P62750 P40429
P62750 URS0000ABD82A
P62750 P62906
P62750 P62987
P62750 Q07020
P62750 P63173
P62750 P62917
P62750 URS000075D341
P62750 URS00000F9D45
P62750 P62829
P62750 P30050
P62750 Q969Q0
P62750 Q9UNX3
P62750 P26373
P62750 P62888
P62750 Q9Y3U8
P62750 P18077
P62750 P42766
P62750 P46777
P62750 P61254
P62750 P46778
P62750 P84098
P62750 P62899
P62750 P05388
P62750 P35268
P62750 P27635
P62750 P62424
P62750 P05387
P62750 P61513
P62750 P62891
P62750 Q02543
P62750 P83881
P62750 P18124
P62750 P39023
P62750 Q96L21
P62750 Q96EH5
P62750 Q92901
P46776 P62945
P46776 Q02878
P46776 P32969
P46776 P62910
P46776 P62913
P46776 P05386
P46776 P40429
P46776 URS0000ABD82A
P46776 P62906
P46776 P62987
P46776 Q07020
P46776 P63173
P46776 P62917
P46776 URS000075D341
P46776 URS00000F9D45
P46776 P62829
P46776 P30050
P46776 Q969Q0
P46776 Q9UNX3
P46776 P26373
P46776 P62888
P46776 Q9Y3U8
P46776 P18077
P46776 P42766
P46776 P46777
P46776 P61254
P46776 P46778
P46776 P84098
P46776 P62899
P46776 P05388
P46776 P35268
P46776 P27635
P46776 P62424
P46776 P05387
P46776 P61513
P46776 P62891
P46776 Q02543
P46776 P83881
P46776 P18124
P46776 P39023
P46776 Q96L21
P46776 Q96EH5
P46776 Q92901
P62945 Q02878
P62945 P32969
P62945 P62910
P62945 P62913
P62945 P05386
P62945 P40429
P62945 URS0000ABD82A
P62945 P62906
P62945 P62987
P62945 Q07020
P62945 P63173
P62945 P62917
P62945 URS000075D341
P62945 URS00000F9D45
P62945 P62829
P62945 P30050
P62945 Q969Q0
P62945 Q9UNX3
P62945 P26373
P62945 P62888
P62945 Q9Y3U8
P62945 P18077
P62945 P42766
P62945 P46777
P62945 P61254
P62945 P46778
P62945 P84098
P62945 P62899
P62945 P05388
P62945 P35268
P62945 P27635
P62945 P62424
P62945 P05387
P62945 P61513
P62945 P62891
P62945 Q02543
P62945 P83881
P62945 P18124
P62945 P39023
P62945 Q96L21
P62945 Q96EH5
P62945 Q92901
Q02878 P32969
Q02878 P62910
Q02878 P62913
Q02878 P05386
Q02878 P40429
Q02878 URS0000ABD82A
Q02878 P62906
Q02878 P62987
Q02878 Q07020
Q02878 P63173
Q02878 P62917
Q02878 URS000075D341
Q02878 URS00000F9D45
Q02878 P62829
Q02878 P30050
Q02878 Q969Q0
Q02878 Q9UNX3
Q02878 P26373
Q02878 P62888
Q02878 Q9Y3U8
Q02878 P18077
Q02878 P42766
Q02878 P46777
Q02878 P61254
Q02878 P46778
Q02878 P84098
Q02878 P62899
Q02878 P05388
Q02878 P35268
Q02878 P27635
Q02878 P62424
Q02878 P05387
Q02878 P61513
Q02878 P62891
Q02878 Q02543
Q02878 P83881
Q02878 P18124
Q02878 P39023
Q02878 Q96L21
Q02878 Q96EH5
Q02878 Q92901
P32969 P62910
P32969 P62913
P32969 P05386
P32969 P40429
P32969 URS0000ABD82A
P32969 P62906
P32969 P62987
P32969 Q07020
P32969 P63173
P32969 P62917
P32969 URS000075D341
P32969 URS00000F9D45
P32969 P62829
P32969 P30050
P32969 Q969Q0
P32969 Q9UNX3
P32969 P26373
P32969 P62888
P32969 Q9Y3U8
P32969 P18077
P32969 P42766
P32969 P46777
P32969 P61254
P32969 P46778
P32969 P84098
P32969 P62899
P32969 P05388
P32969 P35268
P32969 P27635
P32969 P62424
P32969 P05387
P32969 P61513
P32969 P62891
P32969 Q02543
P32969 P83881
P32969 P18124
P32969 P39023
P32969 Q96L21
P32969 Q96EH5
P32969 Q92901
P62910 P62913
P62910 P05386
P62910 P40429
P62910 URS0000ABD82A
P62910 P62906
P62910 P62987
P62910 Q07020
P62910 P63173
P62910 P62917
P62910 URS000075D341
P62910 URS00000F9D45
P62910 P62829
P62910 P30050
P62910 Q969Q0
P62910 Q9UNX3
P62910 P26373
P62910 P62888
P62910 Q9Y3U8
P62910 P18077
P62910 P42766
P62910 P46777
P62910 P61254
P62910 P46778
P62910 P84098
P62910 P62899
P62910 P05388
P62910 P35268
P62910 P27635
P62910 P62424
P62910 P05387
P62910 P61513
P62910 P62891
P62910 Q02543
P62910 P83881
P62910 P18124
P62910 P39023
P62910 Q96L21
P62910 Q96EH5
P62910 Q92901
P62913 P05386
P62913 P40429
P62913 URS0000ABD82A
P62913 P62906
P62913 P62987
P62913 Q07020
P62913 P63173
P62913 P62917
P62913 URS000075D341
P62913 URS00000F9D45
P62913 P62829
P62913 P30050
P62913 Q969Q0
P62913 Q9UNX3
P62913 P26373
P62913 P62888
P62913 Q9Y3U8
P62913 P18077
P62913 P42766
P62913 P46777
P62913 P61254
P62913 P46778
P62913 P84098
P62913 P62899
P62913 P05388
P62913 P35268
P62913 P27635
P62913 P62424
P62913 P05387
P62913 P61513
P62913 P62891
P62913 Q02543
P62913 P83881
P62913 P18124
P62913 P39023
P62913 Q96L21
P62913 Q96EH5
P62913 Q92901
P05386 P40429
P05386 URS0000ABD82A
P05386 P62906
P05386 P62987
P05386 Q07020
P05386 P63173
P05386 P62917
P05386 URS000075D341
P05386 URS00000F9D45
P05386 P62829
P05386 P30050
P05386 Q969Q0
P05386 Q9UNX3
P05386 P26373
P05386 P62888
P05386 Q9Y3U8
P05386 P18077
P05386 P42766
P05386 P46777
P05386 P61254
P05386 P46778
P05386 P84098
P05386 P62899
P05386 P05388
P05386 P35268
P05386 P27635
P05386 P62424
P05386 P05387
P05386 P61513
P05386 P62891
P05386 Q02543
P05386 P83881
P05386 P18124
P05386 P39023
P05386 Q96L21
P05386 Q96EH5
P05386 Q92901
P40429 URS0000ABD82A
P40429 P62906
P40429 P62987
P40429 Q07020
P40429 P63173
P40429 P62917
P40429 URS000075D341
P40429 URS00000F9D45
P40429 P62829
P40429 P30050
P40429 Q969Q0
P40429 Q9UNX3
P40429 P26373
P40429 P62888
P40429 Q9Y3U8
P40429 P18077
P40429 P42766
P40429 P46777
P40429 P61254
P40429 P46778
P40429 P84098
P40429 P62899
P40429 P05388
P40429 P35268
P40429 P27635
P40429 P62424
P40429 P05387
P40429 P61513
P40429 P62891
P40429 Q02543
P40429 P83881
P40429 P18124
P40429 P39023
P40429 Q96L21
P40429 Q96EH5
P40429 Q92901
P40429 P07814
P40429 P04406
URS0000ABD82A P62906
URS0000ABD82A P62987
URS0000ABD82A Q07020
URS0000ABD82A P63173
URS0000ABD82A P62917
URS0000ABD82A URS000075D341
URS0000ABD82A URS00000F9D45
URS0000ABD82A P62829
URS0000ABD82A P30050
URS0000ABD82A Q969Q0
URS0000ABD82A Q9UNX3
URS0000ABD82A P26373
URS0000ABD82A P62888
URS0000ABD82A Q9Y3U8
URS0000ABD82A P18077
URS0000ABD82A P42766
URS0000ABD82A P46777
URS0000ABD82A P61254
URS0000ABD82A P46778
URS0000ABD82A P84098
URS0000ABD82A P62899
URS0000ABD82A P05388
URS0000ABD82A P35268
URS0000ABD82A P27635
URS0000ABD82A P62424
URS0000ABD82A P05387
URS0000ABD82A P61513
URS0000ABD82A P62891
URS0000ABD82A Q02543
URS0000ABD82A P83881
URS0000ABD82A P18124
URS0000ABD82A P39023
URS0000ABD82A Q96L21
URS0000ABD82A Q96EH5
URS0000ABD82A Q92901
P62906 P62987
P62906 Q07020
P62906 P63173
P62906 P62917
P62906 URS000075D341
P62906 URS00000F9D45
P62906 P62829
P62906 P30050
P62906 Q969Q0
P62906 Q9UNX3
P62906 P26373
P62906 P62888
P62906 Q9Y3U8
P62906 P18077
P62906 P42766
P62906 P46777
P62906 P61254
P62906 P46778
P62906 P84098
P62906 P62899
P62906 P05388
P62906 P35268
P62906 P27635
P62906 P62424
P62906 P05387
P62906 P61513
P62906 P62891
P62906 Q02543
P62906 P83881
P62906 P18124
P62906 P39023
P62906 Q96L21
P62906 Q96EH5
P62906 Q92901
P62987 Q07020
P62987 P63173
P62987 P62917
P62987 URS000075D341
P62987 URS00000F9D45
P62987 P62829
P62987 P30050
P62987 Q969Q0
P62987 Q9UNX3
P62987 P26373
P62987 P62888
P62987 Q9Y3U8
P62987 P18077
P62987 P42766
P62987 P46777
P62987 P61254
P62987 P46778
P62987 P84098
P62987 P62899
P62987 P05388
P62987 P35268
P62987 P27635
P62987 P62424
P62987 P05387
P62987 P61513
P62987 P62891
P62987 Q02543
P62987 P83881
P62987 P18124
P62987 P39023
P62987 Q96L21
P62987 Q96EH5
P62987 Q92901
Q07020 P63173
Q07020 P62917
Q07020 URS000075D341
Q07020 URS00000F9D45
Q07020 P62829
Q07020 P30050
Q07020 Q969Q0
Q07020 Q9UNX3
Q07020 P26373
Q07020 P62888
Q07020 Q9Y3U8
Q07020 P18077
Q07020 P42766
Q07020 P46777
Q07020 P61254
Q07020 P46778
Q07020 P84098
Q07020 P62899
Q07020 P05388
Q07020 P35268
Q07020 P27635
Q07020 P62424
Q07020 P05387
Q07020 P61513
Q07020 P62891
Q07020 Q02543
Q07020 P83881
Q07020 P18124
Q07020 P39023
Q07020 Q96L21
Q07020 Q96EH5
Q07020 Q92901
P63173 P62917
P63173 URS000075D341
P63173 URS00000F9D45
P63173 P62829
P63173 P30050
P63173 Q969Q0
P63173 Q9UNX3
P63173 P26373
P63173 P62888
P63173 Q9Y3U8
P63173 P18077
P63173 P42766
P63173 P46777
P63173 P61254
P63173 P46778
P63173 P84098
P63173 P62899
P63173 P05388
P63173 P35268
P63173 P27635
P63173 P62424
P63173 P05387
P63173 P61513
P63173 P62891
P63173 Q02543
P63173 P83881
P63173 P18124
P63173 P39023
P63173 Q96L21
P63173 Q96EH5
P63173 Q92901
P62917 URS000075D341
P62917 URS00000F9D45
P62917 P62829
P62917 P30050
P62917 Q969Q0
P62917 Q9UNX3
P62917 P26373
P62917 P62888
P62917 Q9Y3U8
P62917 P18077
P62917 P42766
P62917 P46777
P62917 P61254
P62917 P46778
P62917 P84098
P62917 P62899
P62917 P05388
P62917 P35268
P62917 P27635
P62917 P62424
P62917 P05387
P62917 P61513
P62917 P62891
P62917 Q02543
P62917 P83881
P62917 P18124
P62917 P39023
P62917 Q96L21
P62917 Q96EH5
P62917 Q92901
URS000075D341 URS00000F9D45
URS000075D341 P62829
URS000075D341 P30050
URS000075D341 Q969Q0
URS000075D341 Q9UNX3
URS000075D341 P26373
URS000075D341 P62888
URS000075D341 Q9Y3U8
URS000075D341 P18077
URS000075D341 P42766
URS000075D341 P46777
URS000075D341 P61254
URS000075D341 P46778
URS000075D341 P84098
URS000075D341 P62899
URS000075D341 P05388
URS000075D341 P35268
URS000075D341 P27635
URS000075D341 P62424
URS000075D341 P05387
URS000075D341 P61513
URS000075D341 P62891
URS000075D341 Q02543
URS000075D341 P83881
URS000075D341 P18124
URS000075D341 P39023
URS000075D341 Q96L21
URS000075D341 Q96EH5
URS000075D341 Q92901
URS00000F9D45 P62829
URS00000F9D45 P30050
URS00000F9D45 Q969Q0
URS00000F9D45 Q9UNX3
URS00000F9D45 P26373
URS00000F9D45 P62888
URS00000F9D45 Q9Y3U8
URS00000F9D45 P18077
URS00000F9D45 P42766
URS00000F9D45 P46777
URS00000F9D45 P61254
URS00000F9D45 P46778
URS00000F9D45 P84098
URS00000F9D45 P62899
URS00000F9D45 P05388
URS00000F9D45 P35268
URS00000F9D45 P27635
URS00000F9D45 P62424
URS00000F9D45 P05387
URS00000F9D45 P61513
URS00000F9D45 P62891
URS00000F9D45 Q02543
URS00000F9D45 P83881
URS00000F9D45 P18124
URS00000F9D45 P39023
URS00000F9D45 Q96L21
URS00000F9D45 Q96EH5
URS00000F9D45 Q92901
P62829 P30050
P62829 Q969Q0
P62829 Q9UNX3
P62829 P26373
P62829 P62888
P62829 Q9Y3U8
P62829 P18077
P62829 P42766
P62829 P46777
P62829 P61254
P62829 P46778
P62829 P84098
P62829 P62899
P62829 P05388
P62829 P35268
P62829 P27635
P62829 P62424
P62829 P05387
P62829 P61513
P62829 P62891
P62829 Q02543
P62829 P83881
P62829 P18124
P62829 P39023
P62829 Q96L21
P62829 Q96EH5
P62829 Q92901
P30050 Q969Q0
P30050 Q9UNX3
P30050 P26373
P30050 P62888
P30050 Q9Y3U8
P30050 P18077
P30050 P42766
P30050 P46777
P30050 P61254
P30050 P46778
P30050 P84098
P30050 P62899
P30050 P05388
P30050 P35268
P30050 P27635
P30050 P62424
P30050 P05387
P30050 P61513
P30050 P62891
P30050 Q02543
P30050 P83881
P30050 P18124
P30050 P39023
P30050 Q96L21
P30050 Q96EH5
P30050 Q92901
Q969Q0 Q9UNX3
Q969Q0 P26373
Q969Q0 P62888
Q969Q0 Q9Y3U8
Q969Q0 P18077
Q969Q0 P42766
Q969Q0 P46777
Q969Q0 P61254
Q969Q0 P46778
Q969Q0 P84098
Q969Q0 P62899
Q969Q0 P05388
Q969Q0 P35268
Q969Q0 P27635
Q969Q0 P62424
Q969Q0 P05387
Q969Q0 P61513
Q969Q0 P62891
Q969Q0 Q02543
Q969Q0 P83881
Q969Q0 P18124
Q969Q0 P39023
Q969Q0 Q96L21
Q969Q0 Q96EH5
Q9UNX3 P26373
Q9UNX3 P62888
Q9UNX3 Q9Y3U8
Q9UNX3 P18077
Q9UNX3 P42766
Q9UNX3 P46777
Q9UNX3 P61254
Q9UNX3 P46778
Q9UNX3 P84098
Q9UNX3 P62899
Q9UNX3 P05388
Q9UNX3 P35268
Q9UNX3 P27635
Q9UNX3 P62424
Q9UNX3 P05387
Q9UNX3 P61513
Q9UNX3 P62891
Q9UNX3 Q02543
Q9UNX3 P83881
Q9UNX3 P18124
Q9UNX3 P39023
Q9UNX3 Q96L21
Q9UNX3 Q96EH5
Q9UNX3 Q92901
P26373 P62888
P26373 Q9Y3U8
P26373 P18077
P26373 P42766
P26373 P46777
P26373 P61254
P26373 P46778
P26373 P84098
P26373 P62899
P26373 P05388
P26373 P35268
P26373 P27635
P26373 P62424
P26373 P05387
P26373 P61513
P26373 P62891
P26373 Q02543
P26373 P83881
P26373 P18124
P26373 P39023
P26373 Q96L21
P26373 Q96EH5
P26373 Q92901
P62888 Q9Y3U8
P62888 P18077
P62888 P42766
P62888 P46777
P62888 P61254
P62888 P46778
P62888 P84098
P62888 P62899
P62888 P05388
P62888 P35268
P62888 P27635
P62888 P62424
P62888 P05387
P62888 P61513
P62888 P62891
P62888 Q02543
P62888 P83881
P62888 P18124
P62888 P39023
P62888 Q96L21
P62888 Q96EH5
P62888 Q92901
Q9Y3U8 P18077
Q9Y3U8 P42766
Q9Y3U8 P46777
Q9Y3U8 P61254
Q9Y3U8 P46778
Q9Y3U8 P84098
Q9Y3U8 P62899
Q9Y3U8 P05388
Q9Y3U8 P35268
Q9Y3U8 P27635
Q9Y3U8 P62424
Q9Y3U8 P05387
Q9Y3U8 P61513
Q9Y3U8 P62891
Q9Y3U8 Q02543
Q9Y3U8 P83881
Q9Y3U8 P18124
Q9Y3U8 P39023
Q9Y3U8 Q96L21
Q9Y3U8 Q96EH5
Q9Y3U8 Q92901
P18077 P42766
P18077 P46777
P18077 P61254
P18077 P46778
P18077 P84098
P18077 P62899
P18077 P05388
P18077 P35268
P18077 P27635
P18077 P62424
P18077 P05387
P18077 P61513
P18077 P62891
P18077 Q02543
P18077 P83881
P18077 P18124
P18077 P39023
P18077 Q96L21
P18077 Q96EH5
P18077 Q92901
P42766 P46777
P42766 P61254
P42766 P46778
P42766 P84098
P42766 P62899
P42766 P05388
P42766 P35268
P42766 P27635
P42766 P62424
P42766 P05387
P42766 P61513
P42766 P62891
P42766 Q02543
P42766 P83881
P42766 P18124
P42766 P39023
P42766 Q96L21
P42766 Q96EH5
P42766 Q92901
P46777 P61254
P46777 P46778
P46777 P84098
P46777 P62899
P46777 P05388
P46777 P35268
P46777 P27635
P46777 P62424
P46777 P05387
P46777 P61513
P46777 P62891
P46777 Q02543
P46777 P83881
P46777 P18124
P46777 P39023
P46777 Q96L21
P46777 Q96EH5
P46777 Q92901
P61254 P46778
P61254 P84098
P61254 P62899
P61254 P05388
P61254 P35268
P61254 P27635
P61254 P62424
P61254 P05387
P61254 P61513
P61254 P62891
P61254 Q02543
P61254 P83881
P61254 P18124
P61254 P39023
P61254 Q96L21
P61254 Q96EH5
P61254 Q92901
P46778 P84098
P46778 P62899
P46778 P05388
P46778 P35268
P46778 P27635
P46778 P62424
P46778 P05387
P46778 P61513
P46778 P62891
P46778 Q02543
P46778 P83881
P46778 P18124
P46778 P39023
P46778 Q96L21
P46778 Q96EH5
P46778 Q92901
P84098 P62899
P84098 P05388
P84098 P35268
P84098 P27635
P84098 P62424
P84098 P05387
P84098 P61513
P84098 P62891
P84098 Q02543
P84098 P83881
P84098 P18124
P84098 P39023
P84098 Q96L21
P84098 Q96EH5
P84098 Q92901
P62899 P05388
P62899 P35268
P62899 P27635
P62899 P62424
P62899 P05387
P62899 P61513
P62899 P62891
P62899 Q02543
P62899 P83881
P62899 P18124
P62899 P39023
P62899 Q96L21
P62899 Q96EH5
P62899 Q92901
P05388 P35268
P05388 P27635
P05388 P62424
P05388 P05387
P05388 P61513
P05388 P62891
P05388 Q02543
P05388 P83881
P05388 P18124
P05388 P39023
P05388 Q96L21
P05388 Q96EH5
P05388 Q92901
P35268 P27635
P35268 P62424
P35268 P05387
P35268 P61513
P35268 P62891
P35268 Q02543
P35268 P83881
P35268 P18124
P35268 P39023
P35268 Q96L21
P35268 Q96EH5
P35268 Q92901
P27635 P62424
P27635 P05387
P27635 P61513
P27635 P62891
P27635 Q02543
P27635 P83881
P27635 P18124
P27635 P39023
P27635 Q92901
P62424 P05387
P62424 P61513
P62424 P62891
P62424 Q02543
P62424 P83881
P62424 P18124
P62424 P39023
P62424 Q96L21
P62424 Q96EH5
P62424 Q92901
P05387 P61513
P05387 P62891
P05387 Q02543
P05387 P83881
P05387 P18124
P05387 P39023
P05387 Q96L21
P05387 Q96EH5
P05387 Q92901
P61513 P62891
P61513 Q02543
P61513 P83881
P61513 P18124
P61513 P39023
P61513 Q96L21
P61513 Q96EH5
P61513 Q92901
P62891 Q02543
P62891 P83881
P62891 P18124
P62891 P39023
P62891 Q92901
Q02543 P83881
Q02543 P18124
Q02543 P39023
Q02543 Q96L21
Q02543 Q96EH5
Q02543 Q92901
P83881 P18124
P83881 P39023
P83881 Q96L21
P83881 Q96EH5
P83881 Q92901
P18124 P39023
P18124 Q96L21
P18124 Q96EH5
P18124 Q92901
P39023 Q96L21
P39023 Q96EH5
Q96L21 Q96EH5
Q8N6L0 Q9UH99
Q8N6L0 O94901
Q9UH99 Q8NF91
Q9UH99 Q8WXH0
Q9UH99 Q6ZMZ3
Q9UH99 Q8N205
Q9UH99 Q12912
Q8NF91 O94901
O94901 Q8WXH0
O94901 Q6ZMZ3
O94901 Q8N205
O94901 Q12912
Q9Y2B1 Q9H9S5
Q9Y2B1 O75072
Q9H9S5 O75072
O14908 Q9P0V3
O14908 Q9UM54
O14908 Q9NZN5
Q9P0V3 Q9UM54
Q9P0V3 Q9NZN5
Q9UM54 Q9NZN5
Q9UM54 Q96II8
Q9UM54 Q96N67
Q96II8 Q96N67
Q9HAP6 Q02410
Q9HAP6 O14936
Q02410 O14936
Q02410 O14910
Q02410 Q9NUP9
O14936 O14910
O14936 Q9NUP9
Q9UKT8 Q13616
Q13616 P57775
Q13616 Q969U6
Q13616 Q969H0
Q13616 Q14999
Q13616 Q8N3Y1
Q13616 Q5XUX1
Q13616 Q5XX13
Q13616 Q9UKB1
Q13616 Q6X9E4
Q13616 P41002
Q13616 Q9UK22
Q13616 Q9UK99
Q13616 Q9UKT5
Q13616 Q9UKT4
Q13616 Q9NRD1
Q13616 Q9Y3I1
Q13616 Q9NRD0
Q13616 Q9UK97
Q13616 Q9UK96
Q13616 Q86XK2
Q13616 Q8NCQ5
Q13616 Q8IX29
Q13616 Q96EF6
Q13616 Q8NFZ0
Q13616 Q8WWI1
Q13616 O94952
Q13616 Q8NEZ5
Q13616 O75426
Q13616 Q8TCJ0
Q13616 Q8NI29
Q13616 Q9NVF7
Q13616 Q8TB52
Q13616 Q5XUX0
Q13616 Q969P5
Q13616 Q7Z6M2
Q13616 Q9NWN3
Q13616 Q8NEA4
Q13616 Q6PIJ6
Q13616 Q8N4B4
Q13616 Q9UH90
Q13616 Q8TF61
Q13616 Q6P3S6
Q13616 Q4G163
Q13616 Q9H4M3
Q13616 Q6PJ61
Q13616 Q5MNV8
Q13616 Q96FV3
Q13616 Q9UKA1
Q13616 Q8NEE6
Q13616 Q8N1E6
Q13616 Q8N461
Q13616 Q9Y297
Q13616 Q96CD0
Q13616 Q6P050
Q13616 Q9H469
Q13616 Q9UKA2
Q13616 Q8N531
Q13616 Q9Y2K7
Q13616 Q96ME1
Q13616 Q6PCT2
Q13616 Q9NXK8
Q13616 Q9UJT9
Q13616 Q9UKT6
Q13616 Q9UF56
Q13616 Q96IG2
Q13616 Q9UKT7
Q13616 Q9UKC9
Q13616 Q13309
Q14999 Q8N3Y1
Q14999 O75147
Q14999 Q9H0W5
Q9BSL1 Q5XPI4
Q86YW7 Q96T91
P53621 P48444
P53621 P35606
P53621 O14579
P53621 P61923
P53621 P53618
P53621 Q9Y678
P53621 Q9UBF2
P53621 Q9P299
P48444 P35606
P48444 O14579
P48444 P61923
P48444 P53618
P48444 Q9Y678
P48444 Q9UBF2
P48444 Q9P299
P35606 O14579
P35606 P61923
P35606 P53618
P35606 Q9Y678
P35606 Q9UBF2
P35606 Q9P299
O14579 P61923
O14579 P53618
O14579 Q9Y678
O14579 Q9UBF2
O14579 Q9P299
P61923 P53618
P61923 Q9Y678
P61923 Q9UBF2
P53618 Q9Y678
P53618 Q9UBF2
P53618 Q9P299
Q9Y678 Q9P299
P23415 P48167
P48167 P23416
P48167 O75311
Q96QK1 Q9UBQ0
Q96QK1 O75436
Q96QK1 Q4G0F5
Q9UBQ0 O75436
Q9UBQ0 Q4G0F5
Q9UBQ0 Q9H0A8
Q9UBQ0 Q8TCE6
Q9UBQ0 Q9P000
Q9UBQ0 Q7Z4G1
Q9UBQ0 Q7Z3J2
Q9UBQ0 Q9Y6G5
Q9UBQ0 Q9NX08
Q9UBQ0 Q86X83
Q9UBQ0 O60826
Q9UBQ0 Q567U6
Q9UBQ0 Q9UBI1
Q9UBQ0 Q9GZQ3
Q9UBQ0 Q8N668
Q9UBQ0 Q86VX2
Q9UBQ0 O14972
Q9BQC3 Q9BZG8
O75151 Q14865
Q96G75 Q6VN20
Q9H5J8 Q53T94
Q9H5J8 Q15572
Q9H5J8 Q15573
Q53T94 Q15572
Q53T94 Q15573
Q15572 Q15573
Q8NI22 P49257
O75592 P0C2W1
Q9NR64 Q13618
Q13618 O95198
Q13618 Q9UH77
Q13618 Q9C0H6
Q13618 Q96PQ7
Q13618 Q8WZ60
Q13618 Q9P2J3
Q13618 Q8IXQ5
Q13618 Q9P2G9
Q13618 Q6JEL2
Q13618 Q9NVR0
Q13618 Q53G59
Q13618 Q9P2N7
Q13618 Q9P2G3
Q13618 Q96M94
Q13618 Q9H2C0
Q13618 Q6TDP4
Q13618 O94889
Q13618 Q14145
Q13618 Q9Y2M5
Q13618 Q9UJP4
Q13618 Q53GT1
Q13618 Q8NBE8
Q13618 Q6TFL4
Q13618 Q9H0H3
Q13618 Q53HC5
Q13618 Q9Y573
Q13618 Q9NXS3
Q13618 Q96CT2
Q13618 Q0D2K2
Q13618 Q9H511
Q13618 Q96NJ5
Q13618 Q8N239
Q13618 Q6PF15
Q13618 Q8N4N3
Q13618 O14682
Q13618 Q2WGJ6
Q13618 Q2TBA0
Q13618 O60662
Q13618 Q9P2K6
Q13618 O43791
Q13618 Q6IQ16
Q13618 Q8IY47
Q13618 Q9NVX7
Q13618 Q86V97
Q13618 Q8WVZ9
Q13618 Q8NFY9
Q13618 Q8NAB2
Q13618 C9JR72
Q9BVK8 Q15155
Q9BVK8 Q969V3
Q9BVK8 Q5JPE7
Q9BVK8 P69849
Q15155 Q969V3
Q969V3 Q5JPE7
Q969V3 P69849
P43308 P51571
P43308 Q9UNL2
P43308 P43307
P51571 Q9UNL2
P51571 P43307
Q9UNL2 P43307
Q9UNP9 Q9HCS7
Q9UNP9 Q9ULR0
Q9UNP9 Q96NB3
Q9UNP9 O60306
Q9UNP9 Q8IYB3
Q9UNP9 P08579
Q9UNP9 Q15427
Q9UNP9 Q13435
Q9UNP9 Q15428
Q9UNP9 O75643
Q9UNP9 Q15029
Q9UNP9 URS00006767A8
Q9UNP9 Q6P2Q9
Q9UNP9 P41223
Q9UNP9 139356
Q9UNP9 Q13573
Q9UNP9 Q9NW64
Q9UNP9 URS000075BAAE
Q9UNP9 URS00006A1489
Q9UNP9 Q13356
Q9UNP9 Q15459
Q9UNP9 P09661
Q9UNP9 Q9BZJ0
Q9UNP9 Q7RTV0
Q9UNP9 Q9Y3B4
Q9UNP9 Q96DI7
Q9UNP9 O60870
Q9UNP9 Q12874
Q9UNP9 Q9HCG8
Q9UNP9 Q6UX04
Q9UNP9 Q9UQ35
Q9UNP9 O15541
Q9UNP9 Q8WUA2
Q9UNP9 Q9Y3C6
Q9UNP9 O60231
Q9UNP9 O60508
Q9UNP9 O95926
Q9UNP9 Q96BP3
Q9UNP9 Q9BW85
Q9UNP9 Q9NXE8
Q9UNP9 Q9NW82
Q9UNP9 Q14331
Q9UNP9 Q86X95
Q9UNP9 Q92620
Q9UNP9 Q14562
Q9UNP9 Q9GZU8
Q9UNP9 P61326
Q9UNP9 Q9Y421
Q9UNP9 Q8WUQ7
Q9UNP9 O95391
Q9UNP9 Q9H875
Q9UNP9 Q8N5F7
Q9UNP9 Q2TBE0
Q9UNP9 O43143
Q9HCS7 Q9ULR0
Q9HCS7 Q96NB3
Q9HCS7 O60306
Q9HCS7 Q8IYB3
Q9HCS7 P08579
Q9HCS7 Q15427
Q9HCS7 Q13435
Q9HCS7 Q15428
Q9HCS7 O75643
Q9HCS7 Q15029
Q9HCS7 URS00006767A8
Q9HCS7 Q6P2Q9
Q9HCS7 P41223
Q9HCS7 139356
Q9HCS7 Q13573
Q9HCS7 Q9NW64
Q9HCS7 URS000075BAAE
Q9HCS7 URS00006A1489
Q9HCS7 Q13356
Q9HCS7 Q15459
Q9HCS7 P09661
Q9HCS7 Q9BZJ0
Q9HCS7 Q7RTV0
Q9HCS7 Q9Y3B4
Q9HCS7 Q96DI7
Q9HCS7 O60870
Q9HCS7 Q12874
Q9HCS7 Q9HCG8
Q9HCS7 Q6UX04
Q9HCS7 Q9UQ35
Q9HCS7 O15541
Q9HCS7 Q8WUA2
Q9HCS7 Q9Y3C6
Q9HCS7 O60231
Q9HCS7 O60508
Q9HCS7 O95926
Q9HCS7 Q96BP3
Q9HCS7 Q9BW85
Q9HCS7 Q9NXE8
Q9HCS7 Q9NW82
Q9HCS7 Q14331
Q9HCS7 Q86X95
Q9HCS7 Q92620
Q9HCS7 Q14562
Q9HCS7 Q9GZU8
Q9HCS7 P61326
Q9HCS7 Q9Y421
Q9HCS7 Q8WUQ7
Q9HCS7 O95391
Q9HCS7 Q9H875
Q9HCS7 Q8N5F7
Q9HCS7 Q2TBE0
Q9HCS7 O43143
Q9ULR0 Q96NB3
Q9ULR0 O60306
Q9ULR0 Q9HCG8
Q9ULR0 O95926
Q9ULR0 P08579
Q9ULR0 Q96BP3
Q9ULR0 O75643
Q9ULR0 Q15029
Q9ULR0 URS00006767A8
Q9ULR0 Q6P2Q9
Q9ULR0 P41223
Q9ULR0 Q13573
Q9ULR0 139356
Q9ULR0 Q9BW85
Q9ULR0 Q9NXE8
Q9ULR0 Q9UQ35
Q9ULR0 Q9NW64
Q9ULR0 Q9Y3C6
Q9ULR0 URS000075BAAE
Q9ULR0 Q9NW82
Q9ULR0 URS00006A1489
Q9ULR0 Q14331
Q9ULR0 P09661
Q9ULR0 O60508
Q9ULR0 Q86X95
Q9ULR0 Q9BZJ0
Q9ULR0 Q96DI7
Q9ULR0 Q92620
Q96NB3 O60306
O60306 Q8IYB3
O60306 P08579
O60306 Q15427
O60306 Q13435
O60306 Q15428
O60306 O75643
O60306 Q15029
O60306 URS00006767A8
O60306 Q6P2Q9
O60306 P41223
O60306 139356
O60306 Q13573
O60306 Q9NW64
O60306 URS000075BAAE
O60306 URS00006A1489
O60306 Q13356
O60306 Q15459
O60306 P09661
O60306 Q9BZJ0
O60306 Q7RTV0
O60306 Q9Y3B4
O60306 Q96DI7
O60306 O60870
O60306 Q12874
O60306 Q9HCG8
O60306 Q6UX04
O60306 Q9UQ35
O60306 O15541
O60306 Q8WUA2
O60306 Q9Y3C6
O60306 O60231
O60306 O60508
O60306 O95926
O60306 Q96BP3
O60306 Q9BW85
O60306 Q9NXE8
O60306 Q9NW82
O60306 Q14331
O60306 Q86X95
O60306 Q92620
O60306 Q14562
O60306 Q9GZU8
O60306 P61326
O60306 Q9Y421
O60306 Q8WUQ7
O60306 O95391
O60306 Q9H875
O60306 Q8N5F7
O60306 Q2TBE0
O60306 O43143
Q6KC79 Q9Y6X3
P61619 P60059
P61619 P60468
P60059 P60468
P60059 Q9H9S3
P60468 Q9H9S3
Q9H4L4 Q9Y4W2
Q9H4L4 Q5SY16
Q9H4L4 Q8IZL8
Q9H4L4 Q9NXF1
Q9H4L4 Q9NU22
Q9H4L4 Q9BV38
Q9Y4W2 Q5SY16
Q9Y4W2 Q8IZL8
Q9Y4W2 Q9NXF1
Q9Y4W2 Q9NU22
Q9Y4W2 Q9BV38
Q5SY16 Q8IZL8
Q5SY16 Q9NXF1
Q5SY16 Q9NU22
Q5SY16 Q9BV38
Q8IZL8 Q9NXF1
Q8IZL8 Q9NU22
Q8IZL8 Q9BV38
Q9NXF1 Q9NU22
Q9NXF1 Q9BV38
Q9NU22 Q9BV38
Q9H069 O95995
Q9H069 Q96MC2
Q9H069 Q9H095
Q9H069 Q96DY2
Q9H069 Q8IXS2
Q9H069 Q5JU00
Q9H069 Q5VUJ9
Q9H069 Q8IY82
Q9H069 Q86XH1
Q9H069 Q8NEE6
O95995 Q96MC2
O95995 Q9H095
O95995 Q96DY2
O95995 Q8IXS2
O95995 Q5JU00
O95995 Q5VUJ9
O95995 Q8IY82
O95995 Q86XH1
O95995 Q8NEE6
Q96MC2 Q9H095
Q96MC2 Q96DY2
Q96MC2 Q8IXS2
Q96MC2 Q5JU00
Q96MC2 Q5VUJ9
Q96MC2 Q8IY82
Q96MC2 Q86XH1
Q96MC2 Q8NEE6
Q9H095 Q96DY2
Q9H095 Q8IXS2
Q9H095 Q5JU00
Q9H095 Q5VUJ9
Q9H095 Q8IY82
Q9H095 Q86XH1
Q9H095 Q8NEE6
Q96DY2 Q8IXS2
Q96DY2 Q5JU00
Q96DY2 Q5VUJ9
Q96DY2 Q8IY82
Q96DY2 Q86XH1
Q96DY2 Q8NEE6
Q8IXS2 Q5JU00
Q8IXS2 Q5VUJ9
Q8IXS2 Q8IY82
Q8IXS2 Q86XH1
Q8IXS2 Q8NEE6
Q5JU00 Q5VUJ9
Q5JU00 Q8IY82
Q5JU00 Q86XH1
Q5JU00 Q8NEE6
Q5VUJ9 Q8IY82
Q5VUJ9 Q86XH1
Q5VUJ9 Q8NEE6
Q8IY82 Q86XH1
Q8IY82 Q8NEE6
Q86XH1 Q8NEE6
Q86XK3 Q1ZZU3
Q96DM3 Q7L1V2
Q96DM3 P86791
Q96DM3 Q86VX9
Q96DM3 P86790
Q7L1V2 P86791
Q7L1V2 P86790
P86791 Q86VX9
Q86VX9 P86790
Q86UC2 Q6P9G0
Q86UC2 Q8WYR4
Q86UC2 Q9H1X1
Q86UC2 Q96FJ2
Q86UC2 P56597
Q86UC2 Q8IYR0
Q86UC2 Q5TD94
Q86UC2 Q9UHP6
Q86UC2 Q96C74
Q86UC2 Q8WWB3
Q86UC2 P59910
Q86UC2 Q9H0K4
Q86UC2 Q8NA54
Q6P9G0 Q8WYR4
Q6P9G0 Q9H1X1
Q6P9G0 Q96FJ2
Q6P9G0 P56597
Q6P9G0 Q8IYR0
Q6P9G0 Q5TD94
Q6P9G0 Q9UHP6
Q6P9G0 Q96C74
Q6P9G0 Q8WWB3
Q6P9G0 P59910
Q6P9G0 Q9H0K4
Q6P9G0 Q8NA54
Q8WYR4 Q9H1X1
Q8WYR4 Q96FJ2
Q8WYR4 P56597
Q8WYR4 Q8IYR0
Q8WYR4 Q5TD94
Q8WYR4 Q9UHP6
Q8WYR4 Q96C74
Q8WYR4 Q8WWB3
Q8WYR4 P59910
Q8WYR4 Q9H0K4
Q8WYR4 Q8NA54
Q9H1X1 Q96FJ2
Q9H1X1 P56597
Q9H1X1 Q8IYR0
Q9H1X1 Q5TD94
Q9H1X1 Q9UHP6
Q9H1X1 Q96C74
Q9H1X1 Q8WWB3
Q9H1X1 P59910
Q9H1X1 Q9H0K4
Q9H1X1 Q8NA54
Q96FJ2 P56597
Q96FJ2 Q8IYR0
Q96FJ2 Q5TD94
Q96FJ2 Q9UHP6
Q96FJ2 Q96C74
Q96FJ2 Q8WWB3
Q96FJ2 P59910
Q96FJ2 Q9H0K4
Q96FJ2 Q8NA54
Q96FJ2 Q8TCX1
Q96FJ2 Q8WVS4
Q96FJ2 Q96EX3
Q96FJ2 Q8NCM8
Q96FJ2 Q8WW35
Q96FJ2 P51808
Q96FJ2 Q8TF09
Q96FJ2 O14576
Q96FJ2 Q9Y6G9
P56597 Q8IYR0
P56597 Q5TD94
P56597 Q9UHP6
P56597 Q96C74
P56597 Q8WWB3
P56597 P59910
P56597 Q9H0K4
P56597 Q8NA54
Q8IYR0 Q5TD94
Q8IYR0 Q9UHP6
Q8IYR0 Q96C74
Q8IYR0 Q8WWB3
Q8IYR0 P59910
Q8IYR0 Q9H0K4
Q8IYR0 Q8NA54
Q5TD94 Q9UHP6
Q5TD94 Q96C74
Q5TD94 Q8WWB3
Q5TD94 P59910
Q9UHP6 Q96C74
Q9UHP6 Q8WWB3
Q9UHP6 P59910
Q9UHP6 Q9H0K4
Q9UHP6 Q8NA54
Q96C74 Q8WWB3
Q96C74 P59910
Q96C74 Q9H0K4
Q96C74 Q8NA54
Q8WWB3 P59910
Q8WWB3 Q9H0K4
Q8WWB3 Q8NA54
P59910 Q9H0K4
P59910 Q8NA54
Q9H0K4 Q8NA54
Q96SU4 Q9BXB5
Q96SU4 Q9BXB4
Q969U7 O95456
Q9BT73 Q5JS54
Q1HG44 Q9NRD8
Q9NRD9 Q1HG43
P82251 Q07837
Q01650 P08195
P08195 Q9UHI5
P08195 Q9UM01
P08195 Q92536
P08195 Q9NS82
P08195 Q9UPY5
Q8WX94 Q9H808
Q8WX94 A6NGQ2
Q8WX94 P59047
Q8WX94 Q6TGC4
Q8WX94 Q587J8
Q8WX94 Q9NX02
Q9H808 A6NGQ2
Q9H808 P59047
Q9H808 Q6TGC4
Q9H808 Q587J8
Q9H808 Q9NX02
A6NGQ2 P59047
A6NGQ2 Q6TGC4
A6NGQ2 Q587J8
A6NGQ2 Q9NX02
P59047 Q6TGC4
P59047 Q587J8
P59047 Q9NX02
Q6TGC4 Q587J8
Q6TGC4 Q9NX02
Q587J8 Q9NX02
Q9HBJ8 Q695T7
Q695T7 Q9BYF1
Q9NRK6 P22830
Q9NRK6 O75027
P22830 O75027
O94874 Q96HY6
O94874 Q96JB5
Q96HY6 Q96JB5
P51114 Q06787
P51114 P51116
Q06787 P51116
Q06787 Q7L576
Q16394 Q93063
P49770 Q14232
P49770 Q9UI10
P49770 Q9NR50
P49770 Q13144
Q14232 Q9UI10
Q14232 Q9NR50
Q14232 Q13144
Q9UI10 Q9NR50
Q9UI10 Q13144
Q9NR50 Q13144
Q5VTR2 O75150
Q6NXT4 Q8TAD4
Q9Y6M5 Q9BRI3
Q9Y6M5 Q99726
Q9Y6M5 O14863
Q9BRI3 Q99726
Q9BRI3 O14863
Q9BRI3 Q6XR72
Q92839 O00219
Q92839 Q92819
O00219 Q92819
Q99726 O14863
Q99726 Q6XR72
P63211 Q9GZN0
P63211 P63096
P63211 P62873
Q9GZN0 P63096
Q9GZN0 P62873
P63096 P62873
O14863 Q6XR72
Q13002 Q16478
Q13002 P39086
Q13002 Q13003
Q13002 Q16099
Q16478 Q13003
Q16478 P39086
Q13003 P39086
Q13003 Q16099
P39086 Q16099
O60656 P22309
O60656 P16662
P22309 P16662
P48169 P18507
P48169 P28472
P48169 P47870
P48169 P18505
P48169 O14764
P18507 P28472
P18507 P47870
P18507 P31644
P18507 P47869
P18507 P34903
P18507 Q16445
P18507 P14867
P18507 P18505
P28472 Q9UN88
P28472 P34903
P28472 Q99928
P28472 P31644
P28472 P14867
P28472 O14764
P28472 P47870
P28472 P47869
P28472 Q16445
Q9UN88 P34903
P34903 Q99928
P34903 P47870
P34903 P18505
P34903 P14867
P47870 P31644
P47870 P47869
P47870 O14764
P47870 P14867
P47870 Q16445
P47870 P18505
Q99928 P31644
P31644 P18505
P47869 P18505
P47869 P14867
O14764 P14867
O14764 Q16445
P14867 P18505
Q16445 P18505
P67775 P30153
P67775 Q9ULQ0
P67775 Q9Y3A3
P67775 Q13033
P67775 O43815
P67775 Q5VSL9
P67775 Q9NRL3
P67775 Q9NVH2
P67775 Q5TA45
P67775 Q8N201
P67775 Q9UL03
P67775 Q96CB8
P67775 Q9NVR2
P67775 Q9H0H0
P67775 Q9NV88
P67775 Q96N11
P67775 Q96SY0
P67775 Q96HW7
P67775 Q9NVM9
P67775 Q75QN2
P67775 Q6P9B9
P30153 Q9ULQ0
P30153 Q9Y3A3
P30153 Q13033
P30153 O43815
P30153 Q5VSL9
P30153 Q9NRL3
P30153 Q9NVH2
P30153 Q5TA45
P30153 Q8N201
P30153 Q9UL03
P30153 Q96CB8
P30153 Q9NVR2
P30153 Q9H0H0
P30153 Q9NV88
P30153 Q96N11
P30153 Q96SY0
P30153 Q96HW7
P30153 Q9NVM9
P30153 Q75QN2
P30153 Q6P9B9
Q9ULQ0 Q9Y3A3
Q9ULQ0 Q13033
Q9ULQ0 O43815
Q9ULQ0 Q9NRL3
Q9Y3A3 Q13033
Q9Y3A3 O43815
Q9Y3A3 Q5VSL9
Q9Y3A3 Q9NRL3
Q13033 Q5VSL9
O43815 Q5VSL9
Q5VSL9 Q9NRL3
Q9UKV8 Q8NDV7
Q9UKV8 Q9HCK5
Q9UKV8 Q9H9G7
Q9UKV8 Q9UL18
Q9UKV8 Q9UPQ9
Q9UKV8 Q9HCJ0
Q8NDV7 Q9HCK5
Q8NDV7 Q9H9G7
Q8NDV7 Q9UL18
Q9HCK5 Q9H9G7
Q9HCK5 Q9UL18
Q9HCK5 Q9UPQ9
Q9HCK5 Q9HCJ0
Q9H9G7 Q9UL18
Q9H9G7 Q9UPQ9
Q9H9G7 Q9HCJ0
Q9UL18 Q9UPQ9
Q9UL18 Q9HCJ0
Q9UPY3 Q15633
Q9UPY3 O75569
Q16533 Q13487
Q16533 Q5SXM2
Q16533 Q92966
Q16533 O75971
Q13487 Q5SXM2
Q13487 Q92966
Q13487 O75971
Q5SXM2 Q92966
Q5SXM2 O75971
Q92966 O75971
Q07699 O60939
Q07699 P35498
Q07699 Q8IWT1
Q07699 Q99250
Q07699 Q9NY46
Q07699 P35499
Q07699 Q14524
Q07699 Q9UQD0
Q07699 Q15858
Q07699 Q9Y5Y9
Q07699 Q9UI33
Q07699 Q01118
O60939 P35498
O60939 Q9NY72
O60939 Q99250
O60939 Q9NY46
O60939 P35499
O60939 Q14524
O60939 Q9UQD0
O60939 Q15858
O60939 Q9Y5Y9
O60939 Q9UI33
O60939 Q01118
P35498 Q9NY72
P35498 Q8IWT1
Q9NY72 Q8IWT1
Q9NY72 Q99250
Q9NY72 Q9NY46
Q9NY72 P35499
Q9NY72 Q14524
Q9NY72 Q9UQD0
Q9NY72 Q15858
Q9NY72 Q9Y5Y9
Q9NY72 Q9UI33
Q9NY72 Q01118
Q8IWT1 Q99250
Q8IWT1 Q9NY46
Q8IWT1 P35499
Q8IWT1 Q14524
Q8IWT1 Q9UQD0
Q8IWT1 Q15858
Q8IWT1 Q9Y5Y9
Q8IWT1 Q9UI33
Q8IWT1 Q01118
P47756 P52907
P47756 P47755
Q08289 0000005002
Q08289 0000005001
Q08289 P54289
Q08289 Q13698
Q08289 Q06432
Q08289 Q9NY47
Q08289 0000304637
Q08289 0000304639
Q08289 0000304647
Q08289 0000304648
Q08289 Q8IZS8
Q08289 0000304657
Q08289 Q7Z3S7
Q08289 0000304656
Q08289 Q13936
0000005002 0000005001
0000005002 P54289
0000005002 Q13698
0000005002 Q06432
0000005002 P54284
0000005002 O00305
0000005002 Q13936
0000005002 Q02641
0000005001 P54289
0000005001 Q13698
0000005001 Q06432
0000005001 P54284
0000005001 O00305
0000005001 Q13936
0000005001 Q02641
P54289 Q13698
P54289 Q06432
P54289 P54284
P54289 O00305
P54289 Q13936
P54289 Q02641
Q13698 Q06432
Q13698 P54284
Q13698 O00305
Q13698 Q02641
Q13698 Q9NY47
Q13698 0000304637
Q13698 0000304639
Q13698 0000304647
Q13698 0000304648
Q13698 Q8IZS8
Q13698 0000304657
Q13698 Q7Z3S7
Q13698 0000304656
Q06432 P54284
Q06432 O00305
Q06432 Q02641
Q06432 Q9NY47
Q06432 0000304637
Q06432 0000304639
Q06432 0000304647
Q06432 0000304648
Q06432 Q8IZS8
Q06432 0000304657
Q06432 Q7Z3S7
Q06432 0000304656
P54284 Q9NY47
P54284 0000304637
P54284 0000304639
P54284 0000304647
P54284 0000304648
P54284 Q8IZS8
P54284 0000304657
P54284 Q7Z3S7
P54284 0000304656
P54284 Q13936
O00305 Q9NY47
O00305 0000304637
O00305 0000304639
O00305 0000304647
O00305 0000304648
O00305 Q8IZS8
O00305 0000304657
O00305 Q7Z3S7
O00305 0000304656
O00305 Q13936
Q6P179 Q9NZ08
P04843 P0C6T2
P04843 P61165
P04843 P39656
P04843 P04844
P04843 P61803
P04843 Q8TCJ2
P04843 Q13454
P04843 Q9H0U3
P04843 Q9NRP0
P04843 P46977
P04843 Q8N6L1
P0C6T2 P61165
P0C6T2 P39656
P0C6T2 P04844
P0C6T2 P61803
P0C6T2 Q8TCJ2
P0C6T2 Q13454
P0C6T2 Q9H0U3
P0C6T2 Q9NRP0
P0C6T2 P46977
P0C6T2 Q8N6L1
P61165 P39656
P61165 P04844
P61165 P61803
P61165 Q8TCJ2
P61165 Q13454
P61165 Q9H0U3
P61165 Q9NRP0
P61165 P46977
P61165 Q8N6L1
P39656 P04844
P39656 P61803
P39656 Q8TCJ2
P39656 Q13454
P39656 Q9H0U3
P39656 Q9NRP0
P39656 P46977
P39656 Q8N6L1
P04844 P61803
P04844 Q8TCJ2
P04844 Q13454
P04844 Q9H0U3
P04844 Q9NRP0
P04844 P46977
P04844 Q8N6L1
P61803 Q8TCJ2
P61803 Q13454
P61803 Q9H0U3
P61803 Q9NRP0
P61803 P46977
P61803 Q8N6L1
Q8TCJ2 Q13454
Q8TCJ2 Q9H0U3
Q9NRP0 P46977
Q9NRP0 Q8N6L1
P46977 Q8N6L1
Q02641 Q9NY47
Q02641 0000304637
Q02641 0000304639
Q02641 0000304647
Q02641 0000304648
Q02641 Q8IZS8
Q02641 0000304657
Q02641 Q7Z3S7
Q02641 0000304656
Q02641 Q13936
Q9NY47 0000304637
Q9NY47 0000304639
Q9NY47 Q13936
0000304637 0000304639
0000304637 Q13936
0000304639 Q13936
0000304647 0000304648
0000304647 Q8IZS8
0000304647 Q13936
0000304648 Q8IZS8
0000304648 Q13936
Q8IZS8 Q13936
P42262 P42261
0000304657 Q7Z3S7
0000304657 0000304656
0000304657 Q13936
Q7Z3S7 0000304656
Q7Z3S7 Q13936
0000304656 Q13936
O43734 Q96F46
O43734 Q16552
O43734 Q96PD4
O43734 Q8NAC3
O43734 Q9H293
O43734 Q9NRM6
O43734 Q9UHF5
O43734 Q8NFR9
O43734 Q9P0M4
Q96F46 Q16552
Q96F46 Q96PD4
Q96F46 Q8NAC3
Q96F46 Q9H293
Q96F46 Q9NRM6
Q96F46 Q9UHF5
Q96F46 Q8NFR9
Q96F46 Q9P0M4
Q16552 Q96PD4
Q16552 Q8NAC3
Q96PD4 Q8NAC3
O43148 Q9BTL3
O15409 Q9H334
O15409 Q8IVH2
Q9H334 Q8IVH2
O43933 Q7Z412
O43933 Q13608
Q7Z412 Q13608
Q8NEV9 Q14213
Q8NEV9 P40189
Q8NEV9 Q6UWB1
Q14213 P40189
Q14213 Q6UWB1
Q13596 Q9Y5X3
Q13596 Q9UNH7
Q13596 Q86XE0
Q9Y5X3 O60749
P01375 0000034424
P01375 0000034423
P01375 P20333
P01375 0000034548
0000034424 P20333
0000034424 0000034548
0000415344 P01583
0000415344 0000015266
P01583 0000015266
Q9UNH7 O60749
Q86XE0 O60749
Q06323 Q9UL46
P31639 Q13113
Q9UDY8 O95999
Q9UDY8 Q9H257
Q9UDY8 Q9BXL7
Q9UDY8 Q9BWT7
Q9UDY8 Q9BXL6
O95999 Q9H257
O95999 Q9BXL7
O95999 Q9BWT7
O95999 Q9BXL6
O43791 Q6IQ16
Q8IYD1 P62495
P62495 P15170
Q86V97 Q8WVZ9
P61328 Q14978
P61328 Q13428
Q14978 Q13428
Q9UKL0 O60341
O60341 Q8IZ40
O60341 Q9P2K3
P01374 P19438
P01374 P36941
P01374 Q06643
P01374 P20333
P01374 Q92956
P19438 0000034543
P19438 Q15628
P19438 Q13546
P19438 O00463
P19438 Q12933
P19438 Q13490
P19438 Q13489
P36941 Q06643
P36941 O43557
P40306 P28062
P40306 P28065
P40306 A5LHX3
P28062 P28065
P28065 A5LHX3
P36957 Q02218
P36957 P82909
Q02218 P82909
Q5T4S7 Q9P0J7
Q2WGJ8 A8MZ26
Q2WGJ8 Q9NTU4
Q2WGJ8 Q7RTX7
Q2WGJ8 Q5SY80
Q2WGJ8 Q86XQ3
Q2WGJ8 Q8NEC5
Q2WGJ8 Q96P56
Q2WGJ8 Q9H7T0
Q2WGJ8 Q86XM0
Q2WGJ8 E9PQX1
Q2WGJ8 Q6ZRH7
A8MZ26 Q9NTU4
A8MZ26 Q7RTX7
A8MZ26 Q5SY80
A8MZ26 Q86XQ3
A8MZ26 Q8NEC5
A8MZ26 Q96P56
A8MZ26 Q9H7T0
A8MZ26 Q86XM0
A8MZ26 E9PQX1
A8MZ26 Q6ZRH7
Q9NTU4 Q7RTX7
Q9NTU4 Q5SY80
Q9NTU4 Q86XQ3
Q9NTU4 Q8NEC5
Q9NTU4 Q96P56
Q9NTU4 Q9H7T0
Q9NTU4 Q86XM0
Q9NTU4 E9PQX1
Q9NTU4 Q6ZRH7
Q7RTX7 Q5SY80
Q7RTX7 Q86XQ3
Q7RTX7 Q8NEC5
Q7RTX7 Q96P56
Q7RTX7 Q9H7T0
Q7RTX7 Q86XM0
Q7RTX7 E9PQX1
Q7RTX7 Q6ZRH7
Q5SY80 Q86XQ3
Q5SY80 Q8NEC5
Q5SY80 Q96P56
Q5SY80 Q9H7T0
Q5SY80 Q86XM0
Q5SY80 E9PQX1
Q5SY80 Q6ZRH7
Q86XQ3 Q8NEC5
Q86XQ3 Q96P56
Q86XQ3 Q9H7T0
Q86XQ3 Q86XM0
Q86XQ3 E9PQX1
Q86XQ3 Q6ZRH7
Q8NEC5 Q96P56
Q8NEC5 Q9H7T0
Q8NEC5 Q86XM0
Q8NEC5 E9PQX1
Q8NEC5 Q6ZRH7
Q96P56 Q9H7T0
Q96P56 Q86XM0
Q96P56 E9PQX1
Q96P56 Q6ZRH7
Q9H7T0 Q86XM0
Q9H7T0 E9PQX1
Q9H7T0 Q6ZRH7
Q86XM0 E9PQX1
Q86XM0 Q6ZRH7
E9PQX1 Q6ZRH7
Q8NB90 Q9BVQ7
Q8NB90 Q9NX04
Q8NB90 Q9BW66
Q9BVQ7 Q9NX04
Q9BVQ7 Q9BW66
Q9NX04 Q9BW66
Q9H293 Q9NRM6
Q9NRM6 Q9UHF5
Q8NFR9 Q9P0M4
P20333 0000034548
P20333 Q12933
P20333 Q13490
P20333 Q13489
Q92956 O43557
Q92956 Q7Z6A9
O43557 O95407
Q8TAF3 Q8TBZ3
Q8TAF3 P62068
Q8TAF3 O75317
Q8TAF3 Q09019
Q8TAF3 O94782
Q8TBZ3 P62068
Q8TBZ3 O75317
Q15018 P34897
O75317 Q09019
P14373 Q93009
P61326 Q9HCG8
P61326 Q14562
P61326 O95926
P61326 P08579
P61326 Q9GZU8
P61326 Q15029
P61326 URS00006767A8
P61326 Q6P2Q9
P61326 P41223
P61326 139356
P61326 Q13573
P61326 Q9UQ35
P61326 Q9NW64
P61326 Q9Y3C6
P61326 URS000075BAAE
P61326 URS00006A1489
P61326 P09661
P61326 O60508
P61326 Q9BZJ0
P61326 Q96DI7
P61326 Q9Y421
P61326 Q8WUQ7
P61326 O95391
P61326 Q9H875
P61326 O75643
P61326 Q8N5F7
Q9NSG2 Q6PIW4
P15735 Q93100
P15735 P46019
Q93100 P46019
Q93100 Q16816
Q93100 P46020
Q9Y4K3 Q96CG3
Q96CG3 Q6ZNK6
Q96CG3 Q12933
Q12933 0000034543
Q12933 Q15628
Q12933 Q13546
Q12933 O00463
Q12933 Q13490
Q12933 Q13489
Q12933 0000034548
P40189 P20809
P40189 Q14626
P40189 0000450688
P40189 P08887
P40189 0000010895
P40189 P05231
P40189 0000450730
P40189 0000015582
P40189 0000010913
P40189 Q6UWB1
P40189 Q99665
P20809 Q14626
P20809 0000450688
P20809 0000010913
Q14626 0000450688
Q14626 0000010913
P10145 Q16570
P10145 P25024
P10145 P25025
O15457 O43196
P40692 P54278
P40692 P54277
P40692 Q9UHC1
O75381 Q92968
O95256 Q13478
O95256 Q14116
Q13478 Q14116
Q13478 Q6IA17
Q13478 0000099065
Q13478 0000015448
Q13478 Q9NZH6
Q14116 O95998
P01730 Q14005
P01730 0000015412
Q14005 0000015412
URS00005CCF67 Q99973
URS00005CCF67 Q14764
URS00005CCF67 URS0000A76E3A
URS00005CCF67 Q9UKK3
URS00005CCF67 URS000058CD99
URS00005CCF67 URS0000000A8C
Q99973 Q14764
Q99973 URS0000A76E3A
Q99973 Q9UKK3
Q99973 URS000058CD99
Q99973 URS0000000A8C
Q14764 URS0000A76E3A
Q14764 Q9UKK3
Q14764 URS000058CD99
Q14764 URS0000000A8C
URS0000A76E3A Q9UKK3
URS0000A76E3A URS000058CD99
URS0000A76E3A URS0000000A8C
Q9UKK3 URS000058CD99
Q9UKK3 URS0000000A8C
URS000058CD99 URS0000000A8C
Q9NWZ3 Q99836
Q9NWZ3 O43187
Q9NWZ3 P51617
Q99836 O43187
Q99836 P51617
O43187 P51617
Q9Y485 Q9GZN7
Q9Y485 Q9Y4E6
Q9GZN7 Q9Y4E6
Q9GZN7 Q8TDJ6
Q9Y4E6 Q8TDJ6
P48059 Q13418
P48059 Q9NVD7
P48059 Q9HBI1
Q13418 Q9NVD7
Q13418 Q9HBI1
Q13418 Q7Z4I7
Q9NVD7 Q7Z4I7
Q9GZX6 Q969J5
Q9GZX6 Q8N6P7
Q9GZX6 Q08334
Q9HBI1 Q7Z4I7
Q9Y4W6 Q9UQ90
O95760 Q01638
P43034 Q15102
P43034 P68402
Q15102 P68402
Q86XR7 Q8IUC6
Q6ZMJ4 P07333
P07333 P09603
Q9HB29 Q9UHA7
Q9HB29 0000153644
Q9HB29 Q9NZH7
Q9HB29 0000153646
Q9HB29 0000153648
Q9HB29 Q9NZH8
Q9HB29 0000153642
Q9HB29 Q9UBH0
Q9UHA7 0000153644
Q9NZH7 0000153646
0000153648 Q9NZH8
0000153642 Q9UBH0
Q6IA17 0000099065
Q6IA17 0000015448
Q6IA17 Q9NZH6
0000099065 0000015448
0000099065 Q9NZH6
0000015448 Q9NZH6
Q9UBU7 O00311
Q9HCE5 Q86U44
Q92546 Q4ADV7
P62136 Q9UQ13
P62136 O14807
P62136 P01111
P62136 P01116
Q9UQ13 O14807
Q9UQ13 P62140
Q9UQ13 P36873
Q9UQ13 P01111
Q9UQ13 P01116
O14807 P62140
O14807 P36873
Q12770 Q12772
Q12770 P36956
0000034543 Q15628
0000034543 Q13546
0000034543 O00463
0000034543 Q13490
0000034543 Q13489
Q15628 Q13546
Q15628 O00463
Q15628 Q13490
Q15628 Q13489
Q13546 O00463
Q13546 Q13490
Q13546 Q13489
Q13546 Q13158
O00463 Q13490
O00463 Q13489
Q13490 0000034548
P05013 P17181
P05013 P48551
P17181 P48551
P17181 P01563
P17181 P01562
P17181 P01567
P17181 P05014
P17181 P01569
P17181 P32881
P17181 P01566
P17181 P01570
P17181 P05015
P17181 P01571
P17181 P01568
P17181 P01574
P17181 Q86WN2
P17181 Q9P0W0
P17181 P05000
P48551 P01563
P48551 P01562
P48551 P01567
P48551 P05014
P48551 P01569
P48551 P32881
P48551 P01566
P48551 P01570
P48551 P05015
P48551 P01571
P48551 P01568
P48551 P01574
P48551 Q86WN2
P48551 Q9P0W0
P48551 P05000
Q8IU54 Q08334
Q8IU54 Q8IU57
Q08334 Q8IU57
Q08334 Q8IZJ0
Q08334 K9M1U5
Q08334 P22301
Q08334 Q13651
Q08334 Q8N6P7
Q08334 Q9UHF4
Q08334 Q9NPH9
Q08334 Q8IZI9
Q8IU57 Q8IZJ0
Q8IU57 K9M1U5
Q8IU57 Q8IZI9
P38484 P15260
P14784 P01589
P14784 P60568
P14784 P31785
P14784 Q13261
P14784 P40933
P01589 P60568
P01589 P31785
P60568 P31785
P31785 P05112
P31785 P24394
P31785 P13232
P31785 0000015623
P31785 P16871
P31785 Q13261
P31785 P40933
P31785 Q9HBE4
P31785 Q9HBE5
P08700 P26951
P05112 P24394
P05112 P78552
P24394 P78552
P08887 0000010895
P08887 P05231
P08887 0000450730
P08887 0000015582
0000010895 P05231
P05231 0000450730
P05231 0000015582
P13232 0000015623
P13232 P16871
0000015623 P16871
P22301 Q13651
Q13489 0000034548
Q13261 P40933
0000015379 Q6UXL0
0000015379 Q9UHF4
0000015379 Q9UHD0
Q6UXL0 Q9UHF4
Q6UXL0 Q9UHD0
Q6UXL0 Q9NYY1
Q6UXL0 Q8N6P7
Q6UXL0 0000015381
Q6UXL0 Q13007
Q9UHF4 Q9UHD0
Q9UHF4 Q9NYY1
Q9UHF4 Q13007
Q9UHF4 Q9NPH9
Q9NYY1 Q8N6P7
Q9NYY1 0000015381
Q8N6P7 0000015381
Q8N6P7 Q13007
Q9HBE4 Q9HBE5
0000259488 Q9NPF7
0000259488 0000268662
0000259488 P42701
0000259488 Q5VWK5
0000259488 0000010917
Q9NPF7 0000268662
Q9NPF7 P42701
Q9NPF7 Q5VWK5
Q9NPF7 0000010917
0000268662 P42701
0000268662 Q5VWK5
0000268662 0000010917
P42701 Q5VWK5
P42701 0000010917
P42701 0000010920
P42701 Q99665
Q5VWK5 0000010917
0000010917 0000010920
0000010917 Q99665
Q6UWB1 Q99665
Q99665 0000010920
Q9NYJ8 Q15750
Q9NYJ8 O43318
Q15750 O43318
Q15750 Q8N5C8
O43318 Q8N5C8
P62807 Q93077
Q16181 Q9UHD8
Q16181 Q15019
Q16181 Q14141
Q16181 Q9UH03
Q9UHD8 Q15019
Q9UHD8 Q14141
Q15019 Q14141
Q15019 Q9UH03
Q14141 Q9UH03
Q9UBN4 P48995
Q9UBN4 Q9UL62
P48995 Q9UL62
Q03518 Q03519
Q9BV40 O95721
Q9BV40 P56962
Q9BV40 Q5SQN1
O95721 P56962
O95721 P51809
O95721 O15498
P56962 P51809
P56962 O15498
P56962 Q5SQN1
P51809 Q5SQN1
O75935 O00399
O75935 P61163
O75935 Q9UJW0
O75935 Q9NZ32
O75935 Q13561
O75935 Q9BTE1
O75935 Q14203
O00399 P61163
O00399 Q9UJW0
O00399 Q9NZ32
O00399 Q13561
O00399 Q9BTE1
O00399 Q14203
P61163 Q9UJW0
P61163 Q9NZ32
P61163 Q13561
P61163 Q9BTE1
P61163 Q14203
Q9UJW0 Q9NZ32
Q9UJW0 Q13561
Q9UJW0 Q9BTE1
Q9UJW0 Q14203
Q9NZ32 Q13561
Q9NZ32 Q9BTE1
Q9NZ32 Q14203
Q13561 Q9BTE1
Q13561 Q14203
Q9BTE1 Q14203
Q9BVC3 P0CG13
Q9BVC3 Q8WVB6
P0CG13 Q8WVB6
Q8TCX1 Q8WVS4
Q8TCX1 Q96EX3
Q8TCX1 Q8NCM8
Q8TCX1 Q8WW35
Q8TCX1 P51808
Q8TCX1 Q8TF09
Q8WVS4 Q96EX3
Q8WVS4 Q8NCM8
Q8WVS4 Q8WW35
Q8WVS4 P51808
Q8WVS4 Q8TF09
Q96EX3 Q8NCM8
Q96EX3 Q8WW35
Q96EX3 P51808
Q96EX3 Q8TF09
Q8NCM8 Q8WW35
Q8NCM8 P51808
Q8NCM8 Q8TF09
Q8WW35 P51808
Q8WW35 Q8TF09
P51808 Q8TF09
P51808 O14576
P51808 Q9Y6G9
Q8TF09 O14576
Q8TF09 Q9Y6G9
Q9Y6G9 O14576
O00567 A6NHQ2
O00567 Q9Y2X3
O00567 P55769
O00567 133335
O00567 P22087
O00567 O15213
O00567 Q9Y3A4
O00567 Q8NEJ9
O00567 Q9H0A0
O00567 Q9NQZ2
O00567 Q92979
O00567 Q5QJE6
O00567 Q9Y3A2
O00567 Q9NY61
O00567 O75691
O00567 Q14692
O00567 Q9BVJ6
O00567 Q9NV06
O00567 Q9H6R4
O00567 Q9Y324
O00567 Q13601
O00567 Q9BVI4
O00567 Q8NDD1
O00567 Q9NRX1
O00567 O43818
O00567 Q9Y2P8
O00567 P78316
A6NHQ2 Q9Y2X3
A6NHQ2 P55769
A6NHQ2 133335
Q9Y2X3 P55769
Q9Y2X3 133335
Q9Y2X3 P22087
Q9Y2X3 O15213
Q9Y2X3 Q9Y3A4
Q9Y2X3 Q8NEJ9
Q9Y2X3 Q9H0A0
Q9Y2X3 Q9NQZ2
Q9Y2X3 Q92979
Q9Y2X3 Q5QJE6
Q9Y2X3 Q9Y3A2
Q9Y2X3 Q9NY61
Q9Y2X3 O75691
Q9Y2X3 Q14692
Q9Y2X3 Q9BVJ6
Q9Y2X3 Q9NV06
Q9Y2X3 Q9H6R4
Q9Y2X3 Q9Y324
Q9Y2X3 Q13601
Q9Y2X3 Q9BVI4
Q9Y2X3 Q8NDD1
Q9Y2X3 Q9NRX1
Q9Y2X3 O43818
Q9Y2X3 Q9Y2P8
Q9Y2X3 P78316
P55769 133335
P55769 O43395
P55769 URS0000715A86
P55769 O43172
P55769 P22087
P55769 O94906
P55769 Q8WWY3
P55769 Q53GS9
P55769 P62310
P55769 Q9BTD8
P55769 URS0000631BD4
P55769 O75643
P55769 Q15029
P55769 URS00006767A8
P55769 Q6P2Q9
P55769 Q9Y4Z0
P55769 Q9BUQ8
P55769 Q8WVK2
P55769 Q9Y333
P55769 Q9UK45
P55769 P83876
P55769 O43290
P55769 P62312
P55769 Q96DI7
P55769 Q9Y4Y9
P55769 O95777
P55769 P08579
P55769 Q15427
P55769 Q13435
P55769 Q15428
P55769 139356
P55769 URS00006A1489
P55769 Q15459
P55769 P09661
P55769 Q9Y3B4
P55769 Q12874
P55769 O15213
P55769 Q9Y3A4
P55769 Q8NEJ9
P55769 Q9H0A0
P55769 Q9NQZ2
P55769 Q92979
P55769 Q5QJE6
P55769 Q9Y3A2
P55769 Q9NY61
P55769 O75691
P55769 Q14692
P55769 Q9BVJ6
P55769 Q9NV06
P55769 Q9H6R4
P55769 Q9Y324
P55769 Q13601
P55769 Q9BVI4
P55769 Q8NDD1
P55769 Q9NRX1
P55769 O43818
P55769 Q9Y2P8
P55769 P78316
133335 P22087
Q9UER7 P46100
A6ND01 Q8IYV9
Q9NVH2 Q5TA45
Q9NVH2 Q8N201
Q9NVH2 Q9UL03
Q9NVH2 Q96CB8
Q9NVH2 Q9NVR2
Q9NVH2 Q9H0H0
Q9NVH2 Q9NV88
Q9NVH2 Q96N11
Q9NVH2 Q96SY0
Q9NVH2 Q96HW7
Q9NVH2 Q9NVM9
Q9NVH2 Q75QN2
Q9NVH2 Q6P9B9
Q5TA45 Q8N201
Q5TA45 Q9UL03
Q5TA45 Q96CB8
Q5TA45 Q9NVR2
Q5TA45 Q9H0H0
Q5TA45 Q9NV88
Q5TA45 Q96N11
Q5TA45 Q96SY0
Q5TA45 Q96HW7
Q5TA45 Q9NVM9
Q5TA45 Q75QN2
Q5TA45 Q6P9B9
Q8N201 Q9UL03
Q8N201 Q96CB8
Q8N201 Q9NVR2
Q8N201 Q9H0H0
Q8N201 Q9NV88
Q8N201 Q96N11
Q8N201 Q96SY0
Q8N201 Q96HW7
Q8N201 Q9NVM9
Q8N201 Q75QN2
Q8N201 Q6P9B9
Q9UL03 Q96CB8
Q9UL03 Q9NVR2
Q9UL03 Q9H0H0
Q9UL03 Q9NV88
Q9UL03 Q96N11
Q9UL03 Q96SY0
Q9UL03 Q96HW7
Q9UL03 Q9NVM9
Q9UL03 Q75QN2
Q9UL03 Q6P9B9
Q96CB8 Q9NVR2
Q96CB8 Q9H0H0
Q96CB8 Q9NV88
Q96CB8 Q96N11
Q96CB8 Q96SY0
Q96CB8 Q96HW7
Q96CB8 Q9NVM9
Q96CB8 Q75QN2
Q96CB8 Q6P9B9
Q9NVR2 Q9H0H0
Q9NVR2 Q9NV88
Q9NVR2 Q96N11
Q9NVR2 Q96SY0
Q9NVR2 Q96HW7
Q9NVR2 Q9NVM9
Q9NVR2 Q75QN2
Q9NVR2 Q6P9B9
Q9H0H0 Q9NV88
Q9H0H0 Q96N11
Q9H0H0 Q96SY0
Q9H0H0 Q96HW7
Q9H0H0 Q9NVM9
Q9H0H0 Q75QN2
Q9H0H0 Q6P9B9
Q9NV88 Q96N11
Q9NV88 Q96SY0
Q9NV88 Q96HW7
Q9NV88 Q9NVM9
Q9NV88 Q75QN2
Q9NV88 Q6P9B9
Q96N11 Q96SY0
Q96N11 Q96HW7
Q96N11 Q9NVM9
Q96N11 Q75QN2
Q96N11 Q6P9B9
Q96SY0 Q96HW7
Q96SY0 Q9NVM9
Q96SY0 Q75QN2
Q96SY0 Q6P9B9
Q96HW7 Q9NVM9
Q96HW7 Q75QN2
Q96HW7 Q6P9B9
Q9NVM9 Q75QN2
Q9NVM9 Q6P9B9
Q75QN2 Q6P9B9
P60880 P63027
P60880 Q16623
P60880 P61266
P60880 P23763
P63027 Q16623
P63027 P61266
Q16623 P23763
Q9Y2I7 Q08AM6
Q9Y2I7 Q92562
Q08AM6 Q92562
P61266 P23763
Q15020 O95777
Q15020 P62312
Q15020 Q9Y4Y9
Q15020 URS00006767A8
Q15020 Q9Y333
Q15020 Q9Y4Z0
Q15020 Q9UK45
Q15020 P62310
O95777 P62312
O95777 Q9Y4Y9
O95777 URS00006767A8
O95777 Q9Y333
O95777 Q9Y4Z0
O95777 Q9UK45
O95777 P62310
O95777 O94906
O95777 URS0000715A86
O95777 Q8WWY3
O95777 Q53GS9
O95777 Q9BTD8
O95777 URS0000631BD4
O95777 O43395
O95777 O75643
O95777 Q15029
O95777 Q6P2Q9
O95777 Q9BUQ8
O95777 Q8WVK2
O95777 P83876
O95777 O43290
O95777 Q96DI7
O95777 O43172
O95777 P08579
O95777 Q15427
O95777 Q13435
O95777 Q15428
O95777 139356
O95777 URS00006A1489
O95777 Q15459
O95777 P09661
O95777 Q9Y3B4
O95777 Q12874
P62312 Q9Y4Y9
P62312 URS00006767A8
P62312 Q9Y333
P62312 Q9Y4Z0
P62312 Q9UK45
P62312 P62310
P62312 O94906
P62312 URS0000715A86
P62312 Q8WWY3
P62312 Q53GS9
P62312 Q9BTD8
P62312 URS0000631BD4
P62312 O43395
P62312 O75643
P62312 Q15029
P62312 Q6P2Q9
P62312 Q9BUQ8
P62312 Q8WVK2
P62312 P83876
P62312 O43290
P62312 Q96DI7
P62312 O43172
P62312 P08579
P62312 Q15427
P62312 Q13435
P62312 Q15428
P62312 139356
P62312 URS00006A1489
P62312 Q15459
P62312 P09661
P62312 Q9Y3B4
P62312 Q12874
Q9Y4Y9 URS00006767A8
Q9Y4Y9 Q9Y333
Q9Y4Y9 Q9Y4Z0
Q9Y4Y9 Q9UK45
Q9Y4Y9 P62310
Q9Y4Y9 O94906
Q9Y4Y9 URS0000715A86
Q9Y4Y9 Q8WWY3
Q9Y4Y9 Q53GS9
Q9Y4Y9 Q9BTD8
Q9Y4Y9 URS0000631BD4
Q9Y4Y9 O43395
Q9Y4Y9 O75643
Q9Y4Y9 Q15029
Q9Y4Y9 Q6P2Q9
Q9Y4Y9 Q9BUQ8
Q9Y4Y9 Q8WVK2
Q9Y4Y9 P83876
Q9Y4Y9 O43290
Q9Y4Y9 Q96DI7
Q9Y4Y9 O43172
Q9Y4Y9 P08579
Q9Y4Y9 Q15427
Q9Y4Y9 Q13435
Q9Y4Y9 Q15428
Q9Y4Y9 139356
Q9Y4Y9 URS00006A1489
Q9Y4Y9 Q15459
Q9Y4Y9 P09661
Q9Y4Y9 Q9Y3B4
Q9Y4Y9 Q12874
URS00006767A8 Q9Y333
URS00006767A8 Q9Y4Z0
URS00006767A8 Q9UK45
URS00006767A8 P62310
URS00006767A8 O94906
URS00006767A8 URS0000715A86
URS00006767A8 Q8WWY3
URS00006767A8 Q53GS9
URS00006767A8 Q9BTD8
URS00006767A8 URS0000631BD4
URS00006767A8 O43395
URS00006767A8 O75643
URS00006767A8 Q15029
URS00006767A8 Q6P2Q9
URS00006767A8 Q9BUQ8
URS00006767A8 Q8WVK2
URS00006767A8 P83876
URS00006767A8 O43290
URS00006767A8 Q96DI7
URS00006767A8 O43172
URS00006767A8 P08579
URS00006767A8 Q15427
URS00006767A8 Q13435
URS00006767A8 Q15428
URS00006767A8 139356
URS00006767A8 URS00006A1489
URS00006767A8 Q15459
URS00006767A8 P09661
URS00006767A8 Q9Y3B4
URS00006767A8 Q12874
URS00006767A8 Q8IYB3
URS00006767A8 P41223
URS00006767A8 Q13573
URS00006767A8 Q9NW64
URS00006767A8 URS000075BAAE
URS00006767A8 Q13356
URS00006767A8 Q9BZJ0
URS00006767A8 Q7RTV0
URS00006767A8 O60870
URS00006767A8 Q9HCG8
URS00006767A8 Q6UX04
URS00006767A8 Q9UQ35
URS00006767A8 O15541
URS00006767A8 Q8WUA2
URS00006767A8 Q9Y3C6
URS00006767A8 O60231
URS00006767A8 O60508
URS00006767A8 O95926
URS00006767A8 Q96BP3
URS00006767A8 Q9BW85
URS00006767A8 Q9NXE8
URS00006767A8 Q9NW82
URS00006767A8 Q14331
URS00006767A8 Q86X95
URS00006767A8 Q92620
URS00006767A8 Q14562
URS00006767A8 Q9GZU8
URS00006767A8 Q9Y421
URS00006767A8 Q8WUQ7
URS00006767A8 O95391
URS00006767A8 Q9H875
URS00006767A8 Q8N5F7
URS00006767A8 Q2TBE0
URS00006767A8 O43143
Q9Y333 Q9Y4Z0
Q9Y333 Q9UK45
Q9Y333 P62310
Q9Y333 O94906
Q9Y333 URS0000715A86
Q9Y333 Q8WWY3
Q9Y333 Q53GS9
Q9Y333 Q9BTD8
Q9Y333 URS0000631BD4
Q9Y333 O43395
Q9Y333 O75643
Q9Y333 Q15029
Q9Y333 Q6P2Q9
Q9Y333 Q9BUQ8
Q9Y333 Q8WVK2
Q9Y333 P83876
Q9Y333 O43290
Q9Y333 Q96DI7
Q9Y333 O43172
Q9Y333 P08579
Q9Y333 Q15427
Q9Y333 Q13435
Q9Y333 Q15428
Q9Y333 139356
Q9Y333 URS00006A1489
Q9Y333 Q15459
Q9Y333 P09661
Q9Y333 Q9Y3B4
Q9Y333 Q12874
Q9Y4Z0 Q9UK45
Q9Y4Z0 P62310
Q9Y4Z0 O94906
Q9Y4Z0 URS0000715A86
Q9Y4Z0 Q8WWY3
Q9Y4Z0 Q53GS9
Q9Y4Z0 Q9BTD8
Q9Y4Z0 URS0000631BD4
Q9Y4Z0 O43395
Q9Y4Z0 O75643
Q9Y4Z0 Q15029
Q9Y4Z0 Q6P2Q9
Q9Y4Z0 Q9BUQ8
Q9Y4Z0 Q8WVK2
Q9Y4Z0 P83876
Q9Y4Z0 O43290
Q9Y4Z0 Q96DI7
Q9Y4Z0 O43172
Q9Y4Z0 P08579
Q9Y4Z0 Q15427
Q9Y4Z0 Q13435
Q9Y4Z0 Q15428
Q9Y4Z0 139356
Q9Y4Z0 URS00006A1489
Q9Y4Z0 Q15459
Q9Y4Z0 P09661
Q9Y4Z0 Q9Y3B4
Q9Y4Z0 Q12874
Q9UK45 P62310
Q9UK45 O94906
Q9UK45 URS0000715A86
Q9UK45 Q8WWY3
Q9UK45 Q53GS9
Q9UK45 Q9BTD8
Q9UK45 URS0000631BD4
Q9UK45 O43395
Q9UK45 O75643
Q9UK45 Q15029
Q9UK45 Q6P2Q9
Q9UK45 Q9BUQ8
Q9UK45 Q8WVK2
Q9UK45 P83876
Q9UK45 O43290
Q9UK45 Q96DI7
Q9UK45 O43172
Q9UK45 P08579
Q9UK45 Q15427
Q9UK45 Q13435
Q9UK45 Q15428
Q9UK45 139356
Q9UK45 URS00006A1489
Q9UK45 Q15459
Q9UK45 P09661
Q9UK45 Q9Y3B4
Q9UK45 Q12874
P62310 O94906
P62310 URS0000715A86
P62310 Q8WWY3
P62310 Q53GS9
P62310 Q9BTD8
P62310 URS0000631BD4
P62310 O43395
P62310 O75643
P62310 Q15029
P62310 Q6P2Q9
P62310 Q9BUQ8
P62310 Q8WVK2
P62310 P83876
P62310 O43290
P62310 Q96DI7
P62310 O43172
P62310 P08579
P62310 Q15427
P62310 Q13435
P62310 Q15428
P62310 139356
P62310 URS00006A1489
P62310 Q15459
P62310 P09661
P62310 Q9Y3B4
P62310 Q12874
Q9BSJ2 Q96RT8
Q9BSJ2 Q6P582
Q9BSJ2 Q9UGJ1
Q9BSJ2 Q08AG7
Q9BSJ2 Q6NZ67
Q9BSJ2 Q96CW5
Q9BSJ2 P23258
Q9BSJ2 Q96RT7
Q96RT8 Q6P582
Q96RT8 Q9UGJ1
Q96RT8 Q08AG7
Q96RT8 Q6NZ67
Q96RT8 Q96CW5
Q96RT8 P23258
Q96RT8 Q96RT7
Q6P582 Q9UGJ1
Q6P582 Q08AG7
Q6P582 Q6NZ67
Q6P582 Q96CW5
Q6P582 P23258
Q6P582 Q96RT7
Q9UGJ1 Q08AG7
Q9UGJ1 Q6NZ67
Q9UGJ1 Q96CW5
Q9UGJ1 P23258
Q9UGJ1 Q96RT7
Q08AG7 Q6NZ67
Q08AG7 Q96CW5
Q08AG7 P23258
Q08AG7 Q96RT7
Q6NZ67 Q96CW5
Q6NZ67 P23258
Q6NZ67 Q96RT7
Q96CW5 P23258
Q96CW5 Q96RT7
P23258 Q96RT7
O43395 URS0000715A86
O43395 O43172
O43395 O94906
O43395 Q8WWY3
O43395 Q53GS9
O43395 Q9BTD8
O43395 URS0000631BD4
O43395 O75643
O43395 Q15029
O43395 Q6P2Q9
O43395 Q9BUQ8
O43395 Q8WVK2
O43395 P83876
O43395 O43290
O43395 Q96DI7
O43395 P08579
O43395 Q15427
O43395 Q13435
O43395 Q15428
O43395 139356
O43395 URS00006A1489
O43395 Q15459
O43395 P09661
O43395 Q9Y3B4
O43395 Q12874
URS0000715A86 O43172
URS0000715A86 O94906
URS0000715A86 Q8WWY3
URS0000715A86 Q53GS9
URS0000715A86 Q9BTD8
URS0000715A86 URS0000631BD4
URS0000715A86 O75643
URS0000715A86 Q15029
URS0000715A86 Q6P2Q9
URS0000715A86 Q9BUQ8
URS0000715A86 Q8WVK2
URS0000715A86 P83876
URS0000715A86 O43290
URS0000715A86 Q96DI7
URS0000715A86 P08579
URS0000715A86 Q15427
URS0000715A86 Q13435
URS0000715A86 Q15428
URS0000715A86 139356
URS0000715A86 URS00006A1489
URS0000715A86 Q15459
URS0000715A86 P09661
URS0000715A86 Q9Y3B4
URS0000715A86 Q12874
O43172 O94906
O43172 Q8WWY3
O43172 Q53GS9
O43172 Q9BTD8
O43172 URS0000631BD4
O43172 O75643
O43172 Q15029
O43172 Q6P2Q9
O43172 Q9BUQ8
O43172 Q8WVK2
O43172 P83876
O43172 O43290
O43172 Q96DI7
O43172 P08579
O43172 Q15427
O43172 Q13435
O43172 Q15428
O43172 139356
O43172 URS00006A1489
O43172 Q15459
O43172 P09661
O43172 Q9Y3B4
O43172 Q12874
O95400 Q9BUQ8
O95400 O75643
O95400 O94906
O95400 URS000075BAAE
O95400 Q15029
O95400 Q96DI7
O95400 Q6P2Q9
Q9BUQ8 O75643
Q9BUQ8 O94906
Q9BUQ8 URS000075BAAE
Q9BUQ8 Q15029
Q9BUQ8 Q96DI7
Q9BUQ8 Q6P2Q9
Q9BUQ8 Q8WWY3
Q9BUQ8 Q53GS9
Q9BUQ8 Q9BTD8
Q9BUQ8 URS0000631BD4
Q9BUQ8 Q8WVK2
Q9BUQ8 P83876
Q9BUQ8 O43290
Q9BUQ8 P08579
Q9BUQ8 Q15427
Q9BUQ8 Q13435
Q9BUQ8 Q15428
Q9BUQ8 139356
Q9BUQ8 URS00006A1489
Q9BUQ8 Q15459
Q9BUQ8 P09661
Q9BUQ8 Q9Y3B4
Q9BUQ8 Q12874
O75643 O94906
O75643 URS000075BAAE
O75643 Q15029
O75643 Q96DI7
O75643 Q6P2Q9
O75643 Q8WWY3
O75643 Q53GS9
O75643 Q9BTD8
O75643 URS0000631BD4
O75643 Q8WVK2
O75643 P83876
O75643 O43290
O75643 P08579
O75643 Q15427
O75643 Q13435
O75643 Q15428
O75643 139356
O75643 URS00006A1489
O75643 Q15459
O75643 P09661
O75643 Q9Y3B4
O75643 Q12874
O75643 Q8IYB3
O75643 P41223
O75643 Q13573
O75643 Q9NW64
O75643 Q13356
O75643 Q9BZJ0
O75643 Q7RTV0
O75643 O60870
O75643 Q9HCG8
O75643 Q6UX04
O75643 Q9UQ35
O75643 O15541
O75643 Q8WUA2
O75643 Q9Y3C6
O75643 O60231
O75643 O60508
O75643 O95926
O75643 Q96BP3
O75643 Q9BW85
O75643 Q9NXE8
O75643 Q9NW82
O75643 Q14331
O75643 Q86X95
O75643 Q92620
O75643 Q14562
O75643 Q9Y421
O75643 Q8WUQ7
O75643 O95391
O75643 Q9H875
O75643 Q8N5F7
O94906 URS000075BAAE
O94906 Q15029
O94906 Q96DI7
O94906 Q6P2Q9
O94906 Q8WWY3
O94906 Q53GS9
O94906 Q9BTD8
O94906 URS0000631BD4
O94906 Q8WVK2
O94906 P83876
O94906 O43290
O94906 P08579
O94906 Q15427
O94906 Q13435
O94906 Q15428
O94906 139356
O94906 URS00006A1489
O94906 Q15459
O94906 P09661
O94906 Q9Y3B4
O94906 Q12874
URS000075BAAE Q15029
URS000075BAAE Q96DI7
URS000075BAAE Q6P2Q9
URS000075BAAE Q8IYB3
URS000075BAAE P08579
URS000075BAAE Q15427
URS000075BAAE Q13435
URS000075BAAE Q15428
URS000075BAAE P41223
URS000075BAAE 139356
URS000075BAAE Q13573
URS000075BAAE Q9NW64
URS000075BAAE URS00006A1489
URS000075BAAE Q13356
URS000075BAAE Q15459
URS000075BAAE P09661
URS000075BAAE Q9BZJ0
URS000075BAAE Q7RTV0
URS000075BAAE Q9Y3B4
URS000075BAAE O60870
URS000075BAAE Q12874
URS000075BAAE Q9HCG8
URS000075BAAE Q6UX04
URS000075BAAE Q9UQ35
URS000075BAAE O15541
URS000075BAAE Q8WUA2
URS000075BAAE Q9Y3C6
URS000075BAAE O60231
URS000075BAAE O60508
URS000075BAAE O95926
URS000075BAAE Q96BP3
URS000075BAAE Q9BW85
URS000075BAAE Q9NXE8
URS000075BAAE Q9NW82
URS000075BAAE Q14331
URS000075BAAE Q86X95
URS000075BAAE Q92620
URS000075BAAE Q14562
URS000075BAAE Q9GZU8
URS000075BAAE Q9Y421
URS000075BAAE Q8WUQ7
URS000075BAAE O95391
URS000075BAAE Q9H875
URS000075BAAE Q8N5F7
URS000075BAAE Q2TBE0
URS000075BAAE O43143
Q15029 Q96DI7
Q15029 Q6P2Q9
Q15029 Q8WWY3
Q15029 Q53GS9
Q15029 Q9BTD8
Q15029 URS0000631BD4
Q15029 Q8WVK2
Q15029 P83876
Q15029 O43290
Q15029 P08579
Q15029 Q15427
Q15029 Q13435
Q15029 Q15428
Q15029 139356
Q15029 URS00006A1489
Q15029 Q15459
Q15029 P09661
Q15029 Q9Y3B4
Q15029 Q12874
Q15029 Q8IYB3
Q15029 P41223
Q15029 Q13573
Q15029 Q9NW64
Q15029 Q13356
Q15029 Q9BZJ0
Q15029 Q7RTV0
Q15029 O60870
Q15029 Q9HCG8
Q15029 Q6UX04
Q15029 Q9UQ35
Q15029 O15541
Q15029 Q8WUA2
Q15029 Q9Y3C6
Q15029 O60231
Q15029 O60508
Q15029 O95926
Q15029 Q96BP3
Q15029 Q9BW85
Q15029 Q9NXE8
Q15029 Q9NW82
Q15029 Q14331
Q15029 Q86X95
Q15029 Q92620
Q15029 Q14562
Q15029 Q9GZU8
Q15029 Q9Y421
Q15029 Q8WUQ7
Q15029 O95391
Q15029 Q9H875
Q15029 Q8N5F7
Q15029 Q2TBE0
Q15029 O43143
Q96DI7 Q6P2Q9
Q96DI7 Q8WWY3
Q96DI7 Q53GS9
Q96DI7 Q9BTD8
Q96DI7 URS0000631BD4
Q96DI7 Q8WVK2
Q96DI7 P83876
Q96DI7 O43290
Q96DI7 P08579
Q96DI7 Q15427
Q96DI7 Q13435
Q96DI7 Q15428
Q96DI7 139356
Q96DI7 URS00006A1489
Q96DI7 Q15459
Q96DI7 P09661
Q96DI7 Q9Y3B4
Q96DI7 Q12874
Q96DI7 Q8IYB3
Q96DI7 P41223
Q96DI7 Q13573
Q96DI7 Q9NW64
Q96DI7 Q13356
Q96DI7 Q9BZJ0
Q96DI7 Q7RTV0
Q96DI7 O60870
Q96DI7 Q9HCG8
Q96DI7 Q6UX04
Q96DI7 Q9UQ35
Q96DI7 O15541
Q96DI7 Q8WUA2
Q96DI7 Q9Y3C6
Q96DI7 O60231
Q96DI7 O60508
Q96DI7 O95926
Q96DI7 Q96BP3
Q96DI7 Q9BW85
Q96DI7 Q9NXE8
Q96DI7 Q9NW82
Q96DI7 Q14331
Q96DI7 Q86X95
Q96DI7 Q92620
Q96DI7 Q14562
Q96DI7 Q9GZU8
Q96DI7 Q9Y421
Q96DI7 Q8WUQ7
Q96DI7 O95391
Q96DI7 Q9H875
Q96DI7 Q8N5F7
Q96DI7 Q2TBE0
Q96DI7 O43143
Q6P2Q9 Q8WWY3
Q6P2Q9 Q53GS9
Q6P2Q9 Q9BTD8
Q6P2Q9 URS0000631BD4
Q6P2Q9 Q8WVK2
Q6P2Q9 P83876
Q6P2Q9 O43290
Q6P2Q9 P08579
Q6P2Q9 Q15427
Q6P2Q9 Q13435
Q6P2Q9 Q15428
Q6P2Q9 139356
Q6P2Q9 URS00006A1489
Q6P2Q9 Q15459
Q6P2Q9 P09661
Q6P2Q9 Q9Y3B4
Q6P2Q9 Q12874
Q6P2Q9 Q8IYB3
Q6P2Q9 P41223
Q6P2Q9 Q13573
Q6P2Q9 Q9NW64
Q6P2Q9 Q13356
Q6P2Q9 Q9BZJ0
Q6P2Q9 Q7RTV0
Q6P2Q9 O60870
Q6P2Q9 Q9HCG8
Q6P2Q9 Q6UX04
Q6P2Q9 Q9UQ35
Q6P2Q9 O15541
Q6P2Q9 Q8WUA2
Q6P2Q9 Q9Y3C6
Q6P2Q9 O60231
Q6P2Q9 O60508
Q6P2Q9 O95926
Q6P2Q9 Q96BP3
Q6P2Q9 Q9BW85
Q6P2Q9 Q9NXE8
Q6P2Q9 Q9NW82
Q6P2Q9 Q14331
Q6P2Q9 Q86X95
Q6P2Q9 Q92620
Q6P2Q9 Q14562
Q6P2Q9 Q9GZU8
Q6P2Q9 Q9Y421
Q6P2Q9 Q8WUQ7
Q6P2Q9 O95391
Q6P2Q9 Q9H875
Q6P2Q9 Q8N5F7
Q6P2Q9 Q2TBE0
Q6P2Q9 O43143
P22087 O15213
P22087 Q9Y3A4
P22087 Q8NEJ9
P22087 Q9H0A0
P22087 Q9NQZ2
P22087 Q92979
P22087 Q5QJE6
P22087 Q9Y3A2
P22087 Q9NY61
P22087 O75691
P22087 Q14692
P22087 Q9BVJ6
P22087 Q9NV06
P22087 Q9H6R4
P22087 Q9Y324
P22087 Q13601
P22087 Q9BVI4
P22087 Q8NDD1
P22087 Q9NRX1
P22087 O43818
P22087 Q9Y2P8
P22087 P78316
Q8WWY3 Q53GS9
Q8WWY3 Q9BTD8
Q8WWY3 URS0000631BD4
Q8WWY3 Q8WVK2
Q8WWY3 P83876
Q8WWY3 O43290
Q8WWY3 P08579
Q8WWY3 Q15427
Q8WWY3 Q13435
Q8WWY3 Q15428
Q8WWY3 139356
Q8WWY3 URS00006A1489
Q8WWY3 Q15459
Q8WWY3 P09661
Q8WWY3 Q9Y3B4
Q8WWY3 Q12874
Q53GS9 Q9BTD8
Q53GS9 URS0000631BD4
Q53GS9 Q8WVK2
Q53GS9 P83876
Q53GS9 O43290
Q53GS9 P08579
Q53GS9 Q15427
Q53GS9 Q13435
Q53GS9 Q15428
Q53GS9 139356
Q53GS9 URS00006A1489
Q53GS9 Q15459
Q53GS9 P09661
Q53GS9 Q9Y3B4
Q53GS9 Q12874
Q9BTD8 URS0000631BD4
Q9BTD8 Q8WVK2
Q9BTD8 P83876
Q9BTD8 O43290
Q9BTD8 P08579
Q9BTD8 Q15427
Q9BTD8 Q13435
Q9BTD8 Q15428
Q9BTD8 139356
Q9BTD8 URS00006A1489
Q9BTD8 Q15459
Q9BTD8 P09661
Q9BTD8 Q9Y3B4
Q9BTD8 Q12874
URS0000631BD4 Q8WVK2
URS0000631BD4 P83876
URS0000631BD4 O43290
URS0000631BD4 P08579
URS0000631BD4 Q15427
URS0000631BD4 Q13435
URS0000631BD4 Q15428
URS0000631BD4 139356
URS0000631BD4 URS00006A1489
URS0000631BD4 Q15459
URS0000631BD4 P09661
URS0000631BD4 Q9Y3B4
URS0000631BD4 Q12874
Q8WVK2 P83876
Q8WVK2 O43290
Q8WVK2 P08579
Q8WVK2 Q15427
Q8WVK2 Q13435
Q8WVK2 Q15428
Q8WVK2 139356
Q8WVK2 URS00006A1489
Q8WVK2 Q15459
Q8WVK2 P09661
Q8WVK2 Q9Y3B4
Q8WVK2 Q12874
P83876 O43290
P83876 P08579
P83876 Q15427
P83876 Q13435
P83876 Q15428
P83876 139356
P83876 URS00006A1489
P83876 Q15459
P83876 P09661
P83876 Q9Y3B4
P83876 Q12874
O43290 P08579
O43290 Q15427
O43290 Q13435
O43290 Q15428
O43290 139356
O43290 URS00006A1489
O43290 Q15459
O43290 P09661
O43290 Q9Y3B4
O43290 Q12874
P08579 Q15427
P08579 Q13435
P08579 M14387
P08579 Q15428
P08579 P09234
P08579 139356
P08579 P09012
P08579 P08621
P08579 URS00006A1489
P08579 Q15459
P08579 P09661
P08579 Q7RTV0
P08579 Q9Y3B4
P08579 Q12874
P08579 Q8IYB3
P08579 P41223
P08579 Q13573
P08579 Q9NW64
P08579 Q13356
P08579 Q9BZJ0
P08579 O60870
P08579 Q9HCG8
P08579 Q6UX04
P08579 Q9UQ35
P08579 O15541
P08579 Q8WUA2
P08579 Q9Y3C6
P08579 O60231
P08579 O60508
P08579 O95926
P08579 Q96BP3
P08579 Q9BW85
P08579 Q9NXE8
P08579 Q9NW82
P08579 Q14331
P08579 Q86X95
P08579 Q92620
P08579 Q14562
P08579 Q9GZU8
P08579 Q9Y421
P08579 Q8WUQ7
P08579 O95391
P08579 Q9H875
P08579 Q8N5F7
P08579 Q2TBE0
P08579 O43143
P08579 Q7L014
P08579 O43719
Q15427 Q13435
Q15427 M14387
Q15427 Q15428
Q15427 P09234
Q15427 139356
Q15427 P09012
Q15427 P08621
Q15427 URS00006A1489
Q15427 Q15459
Q15427 P09661
Q15427 Q7RTV0
Q15427 Q9Y3B4
Q15427 Q12874
Q15427 Q8IYB3
Q15427 P41223
Q15427 Q13573
Q15427 Q9NW64
Q15427 Q13356
Q15427 Q9BZJ0
Q15427 O60870
Q15427 Q9HCG8
Q15427 Q6UX04
Q15427 Q9UQ35
Q15427 O15541
Q15427 Q8WUA2
Q15427 Q9Y3C6
Q15427 O60231
Q15427 O60508
Q15427 O95926
Q15427 Q7L014
Q15427 O43719
Q13435 M14387
Q13435 Q15428
Q13435 P09234
Q13435 139356
Q13435 P09012
Q13435 P08621
Q13435 URS00006A1489
Q13435 Q15459
Q13435 P09661
Q13435 Q7RTV0
Q13435 Q9Y3B4
Q13435 Q12874
Q13435 Q8IYB3
Q13435 P41223
Q13435 Q13573
Q13435 Q9NW64
Q13435 Q13356
Q13435 Q9BZJ0
Q13435 O60870
Q13435 Q9HCG8
Q13435 Q6UX04
Q13435 Q9UQ35
Q13435 O15541
Q13435 Q8WUA2
Q13435 Q9Y3C6
Q13435 O60231
Q13435 O60508
Q13435 O95926
Q13435 Q7L014
Q13435 O43719
M14387 Q15428
M14387 P09234
M14387 139356
M14387 P09012
M14387 P08621
M14387 URS00006A1489
M14387 Q15459
M14387 P09661
M14387 Q7RTV0
M14387 Q9Y3B4
M14387 Q12874
Q15428 P09234
Q15428 139356
Q15428 P09012
Q15428 P08621
Q15428 URS00006A1489
Q15428 Q15459
Q15428 P09661
Q15428 Q7RTV0
Q15428 Q9Y3B4
Q15428 Q12874
Q15428 Q8IYB3
Q15428 P41223
Q15428 Q13573
Q15428 Q9NW64
Q15428 Q13356
Q15428 Q9BZJ0
Q15428 O60870
Q15428 Q9HCG8
Q15428 Q6UX04
Q15428 Q9UQ35
Q15428 O15541
Q15428 Q8WUA2
Q15428 Q9Y3C6
Q15428 O60231
Q15428 O60508
Q15428 Q7L014
Q15428 O43719
P09234 139356
P09234 P09012
P09234 P08621
P09234 URS00006A1489
P09234 Q15459
P09234 P09661
P09234 Q7RTV0
P09234 Q9Y3B4
P09234 Q12874
139356 P09012
139356 P08621
139356 URS00006A1489
139356 Q15459
139356 P09661
139356 Q7RTV0
139356 Q9Y3B4
139356 Q12874
139356 Q8IYB3
139356 P41223
139356 Q13573
139356 Q9NW64
139356 Q13356
139356 Q9BZJ0
139356 O60870
139356 Q9HCG8
139356 Q6UX04
139356 Q9UQ35
139356 O15541
139356 Q8WUA2
139356 Q9Y3C6
139356 O60231
139356 O60508
139356 O95926
139356 Q96BP3
139356 Q9BW85
139356 Q9NXE8
139356 Q9NW82
139356 Q14331
139356 Q86X95
139356 Q92620
139356 Q14562
139356 Q9GZU8
139356 Q9Y421
139356 Q8WUQ7
139356 O95391
139356 Q9H875
139356 Q8N5F7
139356 Q2TBE0
139356 O43143
P09012 P08621
P09012 URS00006A1489
P09012 Q15459
P09012 P09661
P09012 Q7RTV0
P09012 Q9Y3B4
P09012 Q12874
P08621 URS00006A1489
P08621 Q15459
P08621 P09661
P08621 Q7RTV0
P08621 Q9Y3B4
P08621 Q12874
URS00006A1489 Q15459
URS00006A1489 P09661
URS00006A1489 Q7RTV0
URS00006A1489 Q9Y3B4
URS00006A1489 Q12874
URS00006A1489 Q8IYB3
URS00006A1489 P41223
URS00006A1489 Q13573
URS00006A1489 Q9NW64
URS00006A1489 Q13356
URS00006A1489 Q9BZJ0
URS00006A1489 O60870
URS00006A1489 Q9HCG8
URS00006A1489 Q6UX04
URS00006A1489 Q9UQ35
URS00006A1489 O15541
URS00006A1489 Q8WUA2
URS00006A1489 Q9Y3C6
URS00006A1489 O60231
URS00006A1489 O60508
URS00006A1489 O95926
URS00006A1489 Q96BP3
URS00006A1489 Q9BW85
URS00006A1489 Q9NXE8
URS00006A1489 Q9NW82
URS00006A1489 Q14331
URS00006A1489 Q86X95
URS00006A1489 Q92620
URS00006A1489 Q14562
URS00006A1489 Q9GZU8
URS00006A1489 Q9Y421
URS00006A1489 Q8WUQ7
URS00006A1489 O95391
URS00006A1489 Q9H875
URS00006A1489 Q8N5F7
URS00006A1489 Q2TBE0
URS00006A1489 O43143
URS00006A1489 Q7L014
URS00006A1489 O43719
Q15459 P09661
Q15459 Q7RTV0
Q15459 Q9Y3B4
Q15459 Q12874
Q15459 Q8IYB3
Q15459 P41223
Q15459 Q13573
Q15459 Q9NW64
Q15459 Q13356
Q15459 Q9BZJ0
Q15459 O60870
Q15459 Q9HCG8
Q15459 Q6UX04
Q15459 Q9UQ35
Q15459 O15541
Q15459 Q8WUA2
Q15459 Q9Y3C6
Q15459 O60231
Q15459 O60508
Q15459 Q7L014
Q15459 O43719
P09661 Q7RTV0
P09661 Q9Y3B4
P09661 Q12874
P09661 Q8IYB3
P09661 P41223
P09661 Q13573
P09661 Q9NW64
P09661 Q13356
P09661 Q9BZJ0
P09661 O60870
P09661 Q9HCG8
P09661 Q6UX04
P09661 Q9UQ35
P09661 O15541
P09661 Q8WUA2
P09661 Q9Y3C6
P09661 O60231
P09661 O60508
P09661 O95926
P09661 Q96BP3
P09661 Q9BW85
P09661 Q9NXE8
P09661 Q9NW82
P09661 Q14331
P09661 Q86X95
P09661 Q92620
P09661 Q14562
P09661 Q9GZU8
P09661 Q9Y421
P09661 Q8WUQ7
P09661 O95391
P09661 Q9H875
P09661 Q8N5F7
P09661 Q2TBE0
P09661 O43143
P09661 Q7L014
P09661 O43719
Q7RTV0 Q9Y3B4
Q7RTV0 Q12874
Q7RTV0 Q8IYB3
Q7RTV0 P41223
Q7RTV0 Q13573
Q7RTV0 Q9NW64
Q7RTV0 Q13356
Q7RTV0 Q9BZJ0
Q7RTV0 O60870
Q7RTV0 Q9HCG8
Q7RTV0 Q6UX04
Q7RTV0 Q9UQ35
Q7RTV0 O15541
Q7RTV0 Q8WUA2
Q7RTV0 Q9Y3C6
Q7RTV0 O60231
Q7RTV0 O60508
Q7RTV0 O95926
Q7RTV0 Q7L014
Q7RTV0 O43719
Q9Y3B4 Q12874
Q9Y3B4 Q8IYB3
Q9Y3B4 P41223
Q9Y3B4 Q13573
Q9Y3B4 Q9NW64
Q9Y3B4 Q13356
Q9Y3B4 Q9BZJ0
Q9Y3B4 O60870
Q9Y3B4 Q9HCG8
Q9Y3B4 Q6UX04
Q9Y3B4 Q9UQ35
Q9Y3B4 O15541
Q9Y3B4 Q7L014
Q9Y3B4 O43719
Q12874 Q8IYB3
Q12874 P41223
Q12874 Q13573
Q12874 Q9NW64
Q12874 Q13356
Q12874 Q9BZJ0
Q12874 O60870
Q12874 Q9HCG8
Q12874 Q6UX04
Q12874 Q9UQ35
Q12874 O15541
Q12874 Q8WUA2
Q12874 Q9Y3C6
Q12874 O60231
Q12874 O60508
Q12874 O95926
Q12874 Q7L014
Q12874 O43719
Q8IYB3 P41223
Q8IYB3 Q13573
Q8IYB3 Q9NW64
Q8IYB3 Q13356
Q8IYB3 Q9BZJ0
Q8IYB3 O60870
Q8IYB3 Q9HCG8
Q8IYB3 Q6UX04
Q8IYB3 Q9UQ35
Q8IYB3 O15541
P41223 Q13573
P41223 Q9NW64
P41223 Q13356
P41223 Q9BZJ0
P41223 O60870
P41223 Q9HCG8
P41223 Q6UX04
P41223 Q9UQ35
P41223 O15541
P41223 Q8WUA2
P41223 Q9Y3C6
P41223 O60231
P41223 O60508
P41223 O95926
P41223 Q96BP3
P41223 Q9BW85
P41223 Q9NXE8
P41223 Q9NW82
P41223 Q14331
P41223 Q86X95
P41223 Q92620
P41223 Q14562
P41223 Q9GZU8
P41223 Q9Y421
P41223 Q8WUQ7
P41223 O95391
P41223 Q9H875
P41223 Q8N5F7
P41223 Q2TBE0
P41223 O43143
Q13573 Q9NW64
Q13573 Q13356
Q13573 Q9BZJ0
Q13573 O60870
Q13573 Q9HCG8
Q13573 Q6UX04
Q13573 Q9UQ35
Q13573 O15541
Q13573 Q8WUA2
Q13573 Q9Y3C6
Q13573 O60231
Q13573 O60508
Q13573 O95926
Q13573 Q96BP3
Q13573 Q9BW85
Q13573 Q9NXE8
Q13573 Q9NW82
Q13573 Q14331
Q13573 Q86X95
Q13573 Q92620
Q13573 Q14562
Q13573 Q9GZU8
Q13573 Q9Y421
Q13573 Q8WUQ7
Q13573 O95391
Q13573 Q9H875
Q13573 Q8N5F7
Q13573 Q2TBE0
Q13573 O43143
Q13573 Q9Y2W1
Q13573 Q9NYF8
Q13573 Q9H307
Q13573 Q8TAD8
Q9NW64 Q13356
Q9NW64 Q9BZJ0
Q9NW64 O60870
Q9NW64 Q9HCG8
Q9NW64 Q6UX04
Q9NW64 Q9UQ35
Q9NW64 O15541
Q9NW64 Q8WUA2
Q9NW64 Q9Y3C6
Q9NW64 O60231
Q9NW64 O60508
Q9NW64 O95926
Q9NW64 Q96BP3
Q9NW64 Q9BW85
Q9NW64 Q9NXE8
Q9NW64 Q9NW82
Q9NW64 Q14331
Q9NW64 Q86X95
Q9NW64 Q92620
Q9NW64 Q14562
Q9NW64 Q9GZU8
Q9NW64 Q9Y421
Q9NW64 Q8WUQ7
Q9NW64 O95391
Q9NW64 Q9H875
Q9NW64 Q8N5F7
Q9NW64 Q2TBE0
Q9NW64 O43143
Q13356 Q9BZJ0
Q13356 O60870
Q13356 Q9HCG8
Q13356 Q6UX04
Q13356 Q9UQ35
Q13356 O15541
Q13356 Q8WUA2
Q13356 Q9Y3C6
Q13356 O60231
Q13356 O60508
Q9BZJ0 O60870
Q9BZJ0 Q9HCG8
Q9BZJ0 Q6UX04
Q9BZJ0 Q9UQ35
Q9BZJ0 O15541
Q9BZJ0 Q8WUA2
Q9BZJ0 Q9Y3C6
Q9BZJ0 O60231
Q9BZJ0 O60508
Q9BZJ0 O95926
Q9BZJ0 Q96BP3
Q9BZJ0 Q9BW85
Q9BZJ0 Q9NXE8
Q9BZJ0 Q9NW82
Q9BZJ0 Q14331
Q9BZJ0 Q86X95
Q9BZJ0 Q92620
Q9BZJ0 Q14562
Q9BZJ0 Q9GZU8
Q9BZJ0 Q9Y421
Q9BZJ0 Q8WUQ7
Q9BZJ0 O95391
Q9BZJ0 Q9H875
Q9BZJ0 Q8N5F7
Q9BZJ0 Q2TBE0
Q9BZJ0 O43143
Q9Y388 Q9BRD0
Q9Y388 Q8TAD8
Q9BRD0 Q8TAD8
Q8TAD8 Q9Y2W1
Q8TAD8 Q9NYF8
Q8TAD8 Q9H307
Q9HCG8 Q6UX04
Q9HCG8 Q9UQ35
Q9HCG8 O15541
Q9HCG8 Q8WUA2
Q9HCG8 Q9Y3C6
Q9HCG8 O60231
Q9HCG8 O60508
Q9HCG8 O95926
Q9HCG8 Q96BP3
Q9HCG8 Q9BW85
Q9HCG8 Q9NXE8
Q9HCG8 Q9NW82
Q9HCG8 Q14331
Q9HCG8 Q86X95
Q9HCG8 Q92620
Q9HCG8 Q14562
Q9HCG8 Q9GZU8
Q9HCG8 Q9Y421
Q9HCG8 Q8WUQ7
Q9HCG8 O95391
Q9HCG8 Q9H875
Q9HCG8 Q8N5F7
Q6UX04 Q9UQ35
Q6UX04 O15541
Q9UQ35 O15541
Q9UQ35 Q8WUA2
Q9UQ35 Q9Y3C6
Q9UQ35 O60231
Q9UQ35 O60508
Q9UQ35 O95926
Q9UQ35 Q96BP3
Q9UQ35 Q9BW85
Q9UQ35 Q9NXE8
Q9UQ35 Q9NW82
Q9UQ35 Q14331
Q9UQ35 Q86X95
Q9UQ35 Q92620
Q9UQ35 Q14562
Q9UQ35 Q9GZU8
Q9UQ35 Q9Y421
Q9UQ35 Q8WUQ7
Q9UQ35 O95391
Q9UQ35 Q9H875
Q9UQ35 Q8N5F7
O15541 Q8WUA2
O15541 Q9Y3C6
O15541 O60231
O15541 O60508
O15541 O95926
P19634 Q99653
P19634 O43745
P19634 Q96BS2
Q99653 P48764
Q99653 Q9UBY0
Q8WUA2 Q9Y3C6
Q8WUA2 O60231
Q8WUA2 O60508
Q8WUA2 O95926
Q9Y3C6 O60231
Q9Y3C6 O60508
Q9Y3C6 O95926
Q9Y3C6 Q96BP3
Q9Y3C6 Q9BW85
Q9Y3C6 Q9NXE8
Q9Y3C6 Q9NW82
Q9Y3C6 Q14331
Q9Y3C6 Q86X95
Q9Y3C6 Q92620
Q9Y3C6 Q14562
Q9Y3C6 Q9GZU8
Q9Y3C6 Q9Y421
Q9Y3C6 Q8WUQ7
Q9Y3C6 O95391
Q9Y3C6 Q9H875
Q9Y3C6 Q8N5F7
Q9Y3C6 Q2TBE0
Q9Y3C6 O43143
O60231 O60508
O60231 O95926
O60508 O95926
O60508 Q96BP3
O60508 Q9BW85
O60508 Q9NXE8
O60508 Q9NW82
O60508 Q14331
O60508 Q86X95
O60508 Q92620
O60508 Q14562
O60508 Q9GZU8
O60508 Q9Y421
O60508 Q8WUQ7
O60508 O95391
O60508 Q9H875
O60508 Q8N5F7
O60508 Q2TBE0
O60508 O43143
O95926 Q96BP3
O95926 Q9BW85
O95926 Q9NXE8
O95926 Q9NW82
O95926 Q14331
O95926 Q86X95
O95926 Q92620
O95926 Q14562
O95926 Q9GZU8
O95926 Q9Y421
O95926 Q8WUQ7
O95926 O95391
O95926 Q9H875
O95926 Q8N5F7
O95926 Q2TBE0
O95926 O43143
Q3SYG4 Q96RK4
Q3SYG4 Q8NFJ9
Q3SYG4 Q9BXC9
Q3SYG4 Q8IWZ6
Q3SYG4 A8MTZ0
Q3SYG4 Q8TAM2
Q3SYG4 Q8N3I7
Q96RK4 Q8NFJ9
Q96RK4 Q9BXC9
Q96RK4 Q8IWZ6
Q96RK4 A8MTZ0
Q96RK4 Q8TAM2
Q96RK4 Q8N3I7
Q8NFJ9 Q9BXC9
Q8NFJ9 Q8IWZ6
Q8NFJ9 A8MTZ0
Q8NFJ9 Q8TAM2
Q8NFJ9 Q8N3I7
Q9BXC9 Q8IWZ6
Q9BXC9 A8MTZ0
Q9BXC9 Q8TAM2
Q9BXC9 Q8N3I7
Q8IWZ6 A8MTZ0
Q8IWZ6 Q8TAM2
Q8IWZ6 Q8N3I7
A8MTZ0 Q8TAM2
A8MTZ0 Q8N3I7
Q8TAM2 Q8N3I7
Q8TDH9 Q96EV8
Q8TDH9 Q9UL45
Q8TDH9 Q9NUP1
Q8TDH9 Q6QNY0
Q96EV8 Q9UL45
Q96EV8 Q9NUP1
Q96EV8 Q6QNY0
Q9UL45 Q9NUP1
Q9UL45 Q6QNY0
Q9NUP1 Q6QNY0
P02746 P02747
P02746 P02745
P02747 P02745
0000027579 0000027578
0000027579 P09871
0000027579 P00736
0000027579 0000027588
0000027579 0000027587
0000027578 P09871
0000027578 P00736
0000027578 0000027588
0000027578 0000027587
P09871 P00736
P09871 0000027588
P09871 0000027587
P00736 0000027588
P00736 0000027587
0000027588 0000027587
O43745 Q9UBY0
O43745 P48764
Q96BP3 Q9BW85
Q96BP3 Q9NXE8
Q96BP3 Q9NW82
Q96BP3 Q14331
Q96BP3 Q86X95
Q96BP3 Q92620
Q9BW85 Q9NXE8
Q9BW85 Q9NW82
Q9BW85 Q14331
Q9BW85 Q86X95
Q9BW85 Q92620
Q9NXE8 Q9NW82
Q9NXE8 Q14331
Q9NXE8 Q86X95
Q9NXE8 Q92620
Q9NW82 Q14331
Q9NW82 Q86X95
Q9NW82 Q92620
Q14331 Q86X95
Q14331 Q92620
Q86X95 Q92620
Q96BS2 Q9UBY0
Q96BS2 P48764
Q14562 Q9GZU8
Q14562 Q9Y421
Q14562 Q8WUQ7
Q14562 O95391
Q14562 Q9H875
Q14562 Q8N5F7
Q9GZU8 Q9Y421
Q9GZU8 Q8WUQ7
Q9GZU8 O95391
Q9GZU8 Q9H875
Q9Y421 Q8WUQ7
Q9Y421 O95391
Q9Y421 Q9H875
Q9Y421 Q8N5F7
Q8WUQ7 O95391
Q8WUQ7 Q9H875
Q8WUQ7 Q8N5F7
O95391 Q9H875
O95391 Q8N5F7
Q9H875 Q8N5F7
Q2TBE0 O43143
0000009070 0000009021
Q0PNE2 Q6IA86
Q0PNE2 Q9H9T3
Q0PNE2 Q96EB1
Q0PNE2 O95163
Q0PNE2 Q8TE02
Q6IA86 Q9H9T3
Q6IA86 Q96EB1
Q6IA86 O95163
Q6IA86 Q8TE02
Q9H9T3 Q96EB1
Q9H9T3 O95163
Q9H9T3 Q8TE02
Q96EB1 O95163
Q96EB1 Q8TE02
O95163 Q8TE02
Q13952 P23511
Q13952 P25208
P23511 P25208
P49336 Q93074
P49336 Q9UHV7
Q92934 P10415
P10415 P55957
P10415 Q9BXH1
P13010 P12956
P17858 P08237
P78396 P06493
P78396 P24941
P06493 P20248
P06493 P14635
P06493 O95067
P20248 P24941
P24941 Q8WWL7
P24941 P24864
P24941 O96020
P11802 P24385
P11802 P30279
P11802 P30281
P24385 Q00534
P30281 Q00534
Q14181 P49642
Q14181 P09884
Q14181 P49643
P49642 P09884
P49642 P49643
P09884 P49643
Q9UHN1 P54098
P28340 Q9HCU8
Q9NR33 Q07864
Q9NR33 P56282
Q07864 P56282
Q2NKJ3 Q86WV5
Q2NKJ3 Q9H668
Q86WV5 Q9H668
P53609 P49354
P49354 P49356
P68871 P69905
P68871 P02008
P69905 P02042
P69905 P02100
P69905 P69891
P69905 P69892
P20648 P51164
Q9UBE0 Q9UBT2
0000000340 Q15822
Q9GZZ6 0000000376
O60894 P30988
O60894 0000030168
O60894 Q16602
P30988 O60895
P30988 O60896
0000000334 P07510
O43542 O43502
O43502 O75771
O43502 O43543
O43502 O15315
Q6NVH7 Q14159
Q6NVH7 Q19AV6
Q6NVH7 Q9NTI5
Q14159 Q19AV6
Q14159 Q9NTI5
Q19AV6 Q9NTI5
0000030168 Q16602
Q16602 0000030172
Q16602 O60895
Q16602 O60896
Q16602 0000030176
0000030172 O60895
0000000383 Q05901
Q92800 O75530
Q92800 Q5T6S3
Q92800 Q96JN0
Q92800 Q15022
Q92800 A6NHQ4
Q92800 O43189
Q92800 Q6ZN18
Q92800 Q92833
Q92800 Q9Y483
O75530 Q5T6S3
O75530 Q96JN0
O75530 Q15022
O75530 Q15910
O75530 O43189
O75530 A6NHQ4
O75530 Q6ZN18
O75530 Q92833
O75530 Q9Y483
Q5T6S3 Q96JN0
Q5T6S3 Q15022
Q5T6S3 Q15910
Q5T6S3 A6NHQ4
Q96JN0 Q15022
Q96JN0 Q15910
Q96JN0 O43189
Q96JN0 Q9Y483
Q15022 Q15910
Q15022 O43189
Q15022 A6NHQ4
Q15022 Q6ZN18
Q15022 Q92833
Q15022 Q9Y483
Q15910 O43189
Q15910 Q6ZN18
Q15910 Q92833
Q15910 Q9Y483
Q15910 A6NHQ4
Q00535 Q15078
Q00535 Q13319
Q00535 0000004795
Q15078 0000004795
O43189 A6NHQ4
A6NHQ4 Q9Y483
Q9NSD9 Q9Y285
Q6ZN18 Q92833
Q9H0A8 Q8TCE6
Q9H0A8 Q9P000
Q9H0A8 Q7Z4G1
Q9H0A8 Q7Z3J2
Q9H0A8 Q9Y6G5
Q9H0A8 Q9NX08
Q9H0A8 Q86X83
Q9H0A8 O60826
Q9H0A8 Q567U6
Q9H0A8 Q9UBI1
Q9H0A8 Q9GZQ3
Q9H0A8 Q8N668
Q9H0A8 Q86VX2
Q9H0A8 O14972
Q8TCE6 Q9P000
Q8TCE6 Q7Z4G1
Q8TCE6 Q7Z3J2
Q8TCE6 Q9Y6G5
Q8TCE6 Q9NX08
Q8TCE6 Q86X83
Q8TCE6 O60826
Q8TCE6 Q567U6
Q8TCE6 Q9UBI1
Q8TCE6 Q9GZQ3
Q8TCE6 Q8N668
Q8TCE6 Q86VX2
Q8TCE6 O14972
Q9P000 Q7Z4G1
Q9P000 Q7Z3J2
Q9P000 Q9Y6G5
Q9P000 Q9NX08
Q9P000 Q86X83
Q9P000 O60826
Q9P000 Q567U6
Q9P000 Q9UBI1
Q9P000 Q9GZQ3
Q9P000 Q8N668
Q9P000 Q86VX2
Q9P000 O14972
Q7Z4G1 Q7Z3J2
Q7Z4G1 Q9Y6G5
Q7Z4G1 Q9NX08
Q7Z4G1 Q86X83
Q7Z4G1 O60826
Q7Z4G1 Q567U6
Q7Z4G1 Q9UBI1
Q7Z4G1 Q9GZQ3
Q7Z4G1 Q8N668
Q7Z4G1 Q86VX2
Q7Z4G1 O14972
Q7Z3J2 Q9Y6G5
Q7Z3J2 Q9NX08
Q7Z3J2 Q86X83
Q7Z3J2 O60826
Q7Z3J2 Q567U6
Q7Z3J2 Q9UBI1
Q7Z3J2 Q9GZQ3
Q7Z3J2 Q8N668
Q7Z3J2 Q86VX2
Q7Z3J2 O14972
Q9Y6G5 Q9NX08
Q9Y6G5 Q86X83
Q9Y6G5 O60826
Q9Y6G5 Q567U6
Q9Y6G5 Q9UBI1
Q9Y6G5 Q9GZQ3
Q9Y6G5 Q8N668
Q9Y6G5 Q86VX2
Q9Y6G5 O14972
Q9NX08 Q86X83
Q9NX08 O60826
Q9NX08 Q567U6
Q9NX08 Q9UBI1
Q9NX08 Q9GZQ3
Q9NX08 Q8N668
Q9NX08 Q86VX2
Q9NX08 O14972
Q86X83 O60826
Q86X83 Q567U6
Q86X83 Q9UBI1
Q86X83 Q9GZQ3
Q86X83 Q8N668
Q86X83 Q86VX2
Q86X83 O14972
O60826 Q567U6
O60826 Q9UBI1
O60826 Q9GZQ3
O60826 Q8N668
O60826 Q86VX2
O60826 O14972
Q567U6 Q9UBI1
Q567U6 Q9GZQ3
Q567U6 Q8N668
Q567U6 Q86VX2
Q567U6 O14972
Q9UBI1 Q9GZQ3
Q9UBI1 Q8N668
Q9UBI1 Q86VX2
Q9UBI1 O14972
Q9GZQ3 Q8N668
Q9GZQ3 Q86VX2
Q9GZQ3 O14972
Q8N668 Q86VX2
Q8N668 O14972
Q86VX2 O14972
Q96L50 Q15369
Q96L50 Q15370
Q96L50 Q13617
Q15369 Q15370
Q15369 Q13617
Q15369 Q9BSK4
Q15369 Q9UK73
Q15369 Q96JP0
Q15369 Q9C0D3
Q15369 Q92624
Q15369 Q7Z7L7
Q15369 Q6PID8
Q15369 Q9Y2U9
Q15369 Q9BQ90
Q15369 P78395
Q15369 P40337
Q15370 Q13617
Q15370 Q9BSK4
Q15370 Q9UK73
Q15370 Q96JP0
Q15370 Q9C0D3
Q15370 Q92624
Q15370 Q7Z7L7
Q15370 Q6PID8
Q15370 Q9Y2U9
Q15370 Q9BQ90
Q15370 P78395
Q15370 P40337
Q13617 Q9BSK4
Q13617 Q9UK73
Q13617 Q96JP0
Q13617 Q9C0D3
Q13617 Q92624
Q13617 Q7Z7L7
Q13617 Q6PID8
Q13617 Q9Y2U9
Q13617 Q9BQ90
Q13617 P78395
Q13617 P40337
P21953 P11182
P21953 P12694
P11182 P12694
Q96IJ6 Q9Y5P6
Q14657 Q9NPF4
Q14657 Q96S44
Q14657 Q9BXV9
Q14657 Q9Y3C4
Q9NPF4 Q96S44
Q9NPF4 Q9BXV9
Q9NPF4 Q9Y3C4
Q96S44 Q9BXV9
Q96S44 Q9Y3C4
Q9BXV9 Q9Y3C4
Q15287 Q9UKV3
Q15287 O00422
Q15287 Q9H307
Q9UKV3 O00422
O00422 Q9H307
Q9H307 Q9Y2W1
Q9H307 Q9NYF8
Q58A45 Q504Q3
Q9BYE7 Q969R5
Q86UK7 Q6Y7W6
Q86UK7 O60573
Q86UK7 O75420
Q6Y7W6 O60573
O60573 O75420
Q8N2C7 Q8IZF0
Q8N2C7 Q9P2D8
Q8N2C7 B1AL88
Q8IZF0 Q9P2D8
Q8IZF0 B1AL88
Q9P2D8 B1AL88
Q8NEY8 Q9UK61
Q8NEY8 Q99549
Q9UK61 Q99549
Q86VS8 Q05DH4
Q86VS8 Q9H8T0
Q86VS8 Q9UJC3
Q86VS8 Q8N612
Q86VS8 Q96ED9
Q05DH4 Q9H8T0
Q05DH4 Q9UJC3
Q9H8T0 Q9UJC3
Q9H8T0 Q8N612
Q9H8T0 Q5W0V3
Q9H8T0 Q96ED9
Q9UJC3 Q8N612
Q9UJC3 Q96ED9
Q8N612 Q96ED9
Q5W0V3 Q96ED9
A8MW99 Q7Z4M0
A8MW99 Q8IYA8
Q7Z4M0 Q8IYA8
O94855 Q9Y6B6
O94855 Q9NR31
O94855 O94979
O94855 Q9NQW1
O94855 O95487
O94855 P53992
O94855 O95486
Q9Y6B6 Q9NR31
Q9Y6B6 O94979
Q9Y6B6 Q9NQW1
Q9Y6B6 O95487
Q9Y6B6 P53992
Q9Y6B6 O95486
Q9NR31 O94979
Q9NR31 Q9NQW1
Q9NR31 O95487
Q9NR31 P53992
Q9NR31 O95486
O94979 Q9NQW1
O94979 O95487
O94979 P53992
O94979 O95486
Q9NQW1 O95487
Q9NQW1 P53992
Q9NQW1 O95486
O95487 P53992
O95487 O95486
P53992 O95486
O75771 O43543
O75771 O15315
O43543 O15315
Q8WUA4 Q12789
Q8WUA4 Q9Y5Q9
Q8WUA4 Q9UKN8
Q8WUA4 Q9Y5Q8
Q8WUA4 Q969F1
Q12789 Q9Y5Q9
Q12789 Q9UKN8
Q12789 Q9Y5Q8
Q12789 Q969F1
Q9Y5Q9 Q9UKN8
Q9Y5Q9 Q9Y5Q8
Q9Y5Q9 Q969F1
Q9UKN8 Q9Y5Q8
Q9UKN8 Q969F1
Q9Y5Q8 Q969F1
P30101 O15533
Q8WVC0 Q6P1J9
Q8WVC0 Q9GZS3
Q8WVC0 Q8N7H5
Q8WVC0 Q92541
Q8WVC0 Q6PD62
Q6P1J9 Q9GZS3
Q6P1J9 Q8N7H5
Q6P1J9 Q92541
Q6P1J9 Q6PD62
Q9GZS3 Q8N7H5
Q9GZS3 Q92541
Q9GZS3 Q6PD62
Q9GZS3 Q6PGP7
Q9GZS3 Q15477
Q8N7H5 Q92541
Q8N7H5 Q6PD62
Q92541 Q6PD62
Q9H9Y6 Q3B726
Q9H9Y6 Q9GZS1
Q9H9Y6 O95602
Q9H9Y6 Q9P1U0
Q9H9Y6 O15446
Q3B726 Q9GZS1
Q3B726 O95602
Q3B726 Q9P1U0
Q3B726 O15446
Q9GZS1 O95602
Q9GZS1 Q9P1U0
Q9GZS1 O15446
O95602 Q9P1U0
O95602 O15446
Q9P1U0 O15446
P29084 P29083
Q13888 P32780
Q13888 Q6ZYL4
Q13888 P19447
Q13888 P18074
Q13888 Q92759
Q13888 Q13889
P32780 Q6ZYL4
P32780 P19447
P32780 P18074
P32780 Q92759
P32780 Q13889
Q6ZYL4 P19447
Q6ZYL4 P18074
Q6ZYL4 Q92759
Q6ZYL4 Q13889
P19447 P18074
P19447 Q92759
P19447 Q13889
P18074 Q92759
P18074 Q13889
Q92759 Q13889
A6H8Y1 Q92994
A6H8Y1 Q9HAW0
Q9NV06 O15213
Q9NV06 Q9Y3A4
Q9NV06 Q8NEJ9
Q9NV06 Q9H0A0
Q9NV06 Q9NQZ2
Q9NV06 Q92979
Q9NV06 Q5QJE6
Q9NV06 Q9Y3A2
Q9NV06 Q9NY61
Q9NV06 O75691
Q9NV06 Q14692
Q9NV06 Q9BVJ6
Q9NV06 Q9H6R4
Q9NV06 Q9Y324
Q9NV06 Q13601
Q9NV06 Q9BVI4
Q9NV06 Q8NDD1
Q9NV06 Q9NRX1
Q9NV06 O43818
Q9NV06 Q9Y2P8
Q9NV06 P78316
Q9NPJ8 Q9H1B4
Q9NPJ8 Q9H4D5
Q92629 Q16585
Q92629 Q13424
Q92629 0000021065
Q92629 Q16586
Q92629 Q9Y4J8
Q92629 Q14118
Q92629 0000021066
Q92629 Q14714
Q92629 P11532
Q92629 Q13884
Q92629 Q13326
Q92629 P46939
Q92629 O60941
Q16585 Q13424
Q16585 0000021065
Q16585 Q16586
Q16585 Q9Y4J8
Q16585 Q14118
Q16585 0000021066
Q16585 Q14714
Q16585 P11532
Q16585 Q13884
Q16585 Q13326
Q16585 P46939
Q16585 O60941
Q13424 0000021065
Q13424 Q16586
Q13424 Q9Y4J8
Q13424 Q14118
Q13424 0000021066
Q13424 Q14714
Q13424 P11532
Q13424 Q13884
Q13424 Q13326
Q13424 P46939
Q13424 Q96LD1
Q13424 O60941
Q13424 O43556
Q13424 Q9NSN8
0000021065 Q16586
0000021065 Q9Y4J8
0000021065 Q14118
0000021065 0000021066
0000021065 Q14714
0000021065 P11532
0000021065 Q13884
0000021065 Q13326
0000021065 P46939
0000021065 Q96LD1
0000021065 O60941
0000021065 O43556
0000021065 Q9NSN8
Q16586 Q9Y4J8
Q16586 Q14118
Q16586 0000021066
Q16586 Q14714
Q16586 P11532
Q16586 Q13884
Q16586 Q13326
Q16586 P46939
Q16586 O60941
Q9Y4J8 Q14118
Q9Y4J8 0000021066
Q9Y4J8 Q14714
Q9Y4J8 P11532
Q9Y4J8 Q13884
Q9Y4J8 Q13326
Q9Y4J8 P46939
Q14118 0000021066
Q14118 Q14714
Q14118 P11532
Q14118 Q13884
Q14118 Q13326
Q14118 P46939
Q14118 Q96LD1
Q14118 O60941
Q14118 O43556
Q14118 Q9NSN8
0000021066 Q14714
0000021066 P11532
0000021066 Q13884
0000021066 Q13326
0000021066 P46939
0000021066 Q96LD1
0000021066 O60941
0000021066 O43556
0000021066 Q9NSN8
Q14714 P11532
Q14714 Q13884
Q14714 Q13326
Q14714 P46939
Q14714 O60941
P11532 Q13884
P11532 Q13326
P11532 Q96LD1
P11532 O60941
P11532 O43556
P11532 Q9NSN8
Q13884 Q13326
Q13884 P46939
Q13884 O60941
Q13326 P46939
Q13326 O60941
Q9H9S4 Q15831
Q9H9S4 Q7RTN6
Q9H9S4 Q9C0K7
Q15831 Q7RTN6
Q15831 Q9Y376
Q15831 Q9C0K7
Q7RTN6 Q9Y376
Q9P278 Q8NFG4
Q8NFG4 Q8TF40
Q8IWA0 Q8TED0
Q8IWA0 Q9H583
Q8IWA0 Q9H8H0
Q8IWA0 Q15061
Q8IWA0 Q969X6
Q8TED0 Q9H583
Q8TED0 Q9H8H0
Q8TED0 Q15061
Q8TED0 Q969X6
Q9H583 Q9H8H0
Q9H583 Q15061
Q9H583 Q969X6
Q9H8H0 Q15061
Q9H8H0 Q969X6
Q15061 Q969X6
Q96LD1 O60941
Q96LD1 O43556
Q96LD1 Q9NSN8
O60941 O43556
O60941 Q9NSN8
O43556 Q9NSN8
Q9BXU0 A1L190
Q9BXU0 Q15431
Q9BXU0 Q6PIF2
Q9BXU0 Q9BX26
Q9BXU0 Q8N0S2
Q9BXU0 Q8IZU3
A1L190 Q15431
A1L190 Q6PIF2
A1L190 Q9BX26
A1L190 Q8N0S2
A1L190 Q8IZU3
Q15431 Q6PIF2
Q15431 Q9BX26
Q15431 Q8N0S2
Q15431 Q8IZU3
Q6PIF2 Q9BX26
Q6PIF2 Q8N0S2
Q6PIF2 Q8IZU3
Q9BX26 Q8N0S2
Q9BX26 Q8IZU3
Q8N0S2 Q8IZU3
P07814 P14868
P07814 Q9P2J5
P07814 Q12904
P07814 P47897
P07814 Q15046
P07814 P54136
P07814 O43324
P07814 Q13155
P07814 P56192
P07814 P41252
P07814 P04406
P14868 Q9P2J5
P14868 Q12904
P14868 P47897
P14868 Q15046
P14868 P54136
P14868 O43324
P14868 Q13155
P14868 P56192
P14868 P41252
Q9P2J5 Q12904
Q9P2J5 P47897
Q9P2J5 Q15046
Q9P2J5 P54136
Q9P2J5 O43324
Q9P2J5 Q13155
Q9P2J5 P56192
Q9P2J5 P41252
Q12904 P47897
Q12904 Q15046
Q12904 P54136
Q12904 O43324
Q12904 Q13155
Q12904 P56192
Q12904 P41252
P47897 Q15046
P47897 P54136
P47897 O43324
P47897 Q13155
P47897 P56192
P47897 P41252
Q15046 P54136
Q15046 O43324
Q15046 Q13155
Q15046 P56192
Q15046 P41252
P54136 O43324
P54136 Q13155
P54136 P56192
P54136 P41252
O43324 Q13155
O43324 P56192
O43324 P41252
Q13155 P56192
Q13155 P41252
P56192 P41252
P41208 P54727
P41208 Q01831
P41208 P54725
Q96G21 Q9NV31
Q96G21 O00566
Q9NV31 O00566
Q9UI30 Q9BV44
Q9UI30 Q7Z4G4
Q9UI30 Q9NRN9
Q9UI30 Q9BTF0
Q9UI30 Q96BT7
Q9UI30 Q9Y5N5
Q9UI30 O43709
O15145 O15144
O15145 Q92747
O15145 P61160
O15145 Q9P1U1
O15145 O15511
O15145 P59998
O15145 P61158
O15145 O15143
O15145 Q9BPX5
O15144 Q92747
O15144 P61160
O15144 Q9P1U1
O15144 O15511
O15144 P59998
O15144 P61158
O15144 O15143
O15144 Q9BPX5
Q92747 P61160
Q92747 Q9P1U1
Q92747 O15511
Q92747 P59998
Q92747 P61158
Q92747 Q9BPX5
P61160 Q9P1U1
P61160 O15511
P61160 P59998
P61160 P61158
P61160 O15143
P61160 Q9BPX5
Q9P1U1 O15511
Q9P1U1 P59998
Q9P1U1 O15143
Q9P1U1 Q9BPX5
O15511 P59998
O15511 P61158
O15511 O15143
P59998 P61158
P59998 O15143
P59998 Q9BPX5
O00273 O76075
P02549 P11277
Q86U28 Q5T440
Q86U28 Q9BUE6
Q86VN1 Q9BRG1
Q86VN1 Q96H20
Q9BRG1 Q96H20
O15213 Q9Y3A4
O15213 Q8NEJ9
O15213 Q9H0A0
O15213 Q9NQZ2
O15213 Q92979
O15213 Q5QJE6
O15213 Q9Y3A2
O15213 Q9NY61
O15213 O75691
O15213 Q14692
O15213 Q9BVJ6
O15213 Q9H6R4
O15213 Q9Y324
O15213 Q13601
O15213 Q9BVI4
O15213 Q8NDD1
O15213 Q9NRX1
O15213 O43818
O15213 Q9Y2P8
O15213 P78316
Q9Y3A4 Q8NEJ9
Q9Y3A4 Q9H0A0
Q9Y3A4 Q9NQZ2
Q9Y3A4 Q92979
Q9Y3A4 Q5QJE6
Q9Y3A4 Q9Y3A2
Q9Y3A4 Q9NY61
Q9Y3A4 O75691
Q9Y3A4 Q14692
Q9Y3A4 Q9BVJ6
Q9Y3A4 Q9H6R4
Q9Y3A4 Q9Y324
Q9Y3A4 Q13601
Q9Y3A4 Q9BVI4
Q9Y3A4 Q8NDD1
Q9Y3A4 Q9NRX1
Q9Y3A4 O43818
Q9Y3A4 Q9Y2P8
Q9Y3A4 P78316
Q8NEJ9 Q9H0A0
Q8NEJ9 Q9NQZ2
Q8NEJ9 Q92979
Q8NEJ9 Q5QJE6
Q8NEJ9 Q9Y3A2
Q8NEJ9 Q9NY61
Q8NEJ9 O75691
Q8NEJ9 Q14692
Q8NEJ9 Q9BVJ6
Q8NEJ9 Q9H6R4
Q8NEJ9 Q9Y324
Q8NEJ9 Q13601
Q8NEJ9 Q9BVI4
Q8NEJ9 Q8NDD1
Q8NEJ9 Q9NRX1
Q8NEJ9 O43818
Q8NEJ9 Q9Y2P8
Q8NEJ9 P78316
Q9H0A0 Q9NQZ2
Q9H0A0 Q92979
Q9H0A0 Q5QJE6
Q9H0A0 Q9Y3A2
Q9H0A0 Q9NY61
Q9H0A0 O75691
Q9H0A0 Q14692
Q9H0A0 Q9BVJ6
Q9H0A0 Q9H6R4
Q9H0A0 Q9Y324
Q9H0A0 Q13601
Q9H0A0 Q9BVI4
Q9H0A0 Q8NDD1
Q9H0A0 Q9NRX1
Q9H0A0 O43818
Q9H0A0 Q9Y2P8
Q9H0A0 P78316
Q9NQZ2 Q92979
Q9NQZ2 Q5QJE6
Q9NQZ2 Q9Y3A2
Q9NQZ2 Q9NY61
Q9NQZ2 O75691
Q9NQZ2 Q14692
Q9NQZ2 Q9BVJ6
Q9NQZ2 Q9H6R4
Q9NQZ2 Q9Y324
Q9NQZ2 Q13601
Q9NQZ2 Q9BVI4
Q9NQZ2 Q8NDD1
Q9NQZ2 Q9NRX1
Q9NQZ2 O43818
Q9NQZ2 Q9Y2P8
Q9NQZ2 P78316
Q92979 Q5QJE6
Q92979 Q9Y3A2
Q92979 Q9NY61
Q92979 O75691
Q92979 Q14692
Q92979 Q9BVJ6
Q92979 Q9H6R4
Q92979 Q9Y324
Q92979 Q13601
Q92979 Q9BVI4
Q92979 Q8NDD1
Q92979 Q9NRX1
Q92979 O43818
Q92979 Q9Y2P8
Q92979 P78316
Q5QJE6 Q9Y3A2
Q5QJE6 Q9NY61
Q5QJE6 O75691
Q5QJE6 Q14692
Q5QJE6 Q9BVJ6
Q5QJE6 Q9H6R4
Q5QJE6 Q9Y324
Q5QJE6 Q13601
Q5QJE6 Q9BVI4
Q5QJE6 Q8NDD1
Q5QJE6 Q9NRX1
Q5QJE6 O43818
Q5QJE6 Q9Y2P8
Q5QJE6 P78316
Q9Y3A2 Q9NY61
Q9Y3A2 O75691
Q9Y3A2 Q14692
Q9Y3A2 Q9BVJ6
Q9Y3A2 Q9H6R4
Q9Y3A2 Q9Y324
Q9Y3A2 Q13601
Q9Y3A2 Q9BVI4
Q9Y3A2 Q8NDD1
Q9Y3A2 Q9NRX1
Q9Y3A2 O43818
Q9Y3A2 Q9Y2P8
Q9Y3A2 P78316
Q9NY61 O75691
Q9NY61 Q14692
Q9NY61 Q9BVJ6
Q9NY61 Q9H6R4
Q9NY61 Q9Y324
Q9NY61 Q13601
Q9NY61 Q9BVI4
Q9NY61 Q8NDD1
Q9NY61 Q9NRX1
Q9NY61 O43818
Q9NY61 Q9Y2P8
Q9NY61 P78316
O75691 Q14692
O75691 Q9BVJ6
O75691 Q9H6R4
O75691 Q9Y324
O75691 Q13601
O75691 Q9BVI4
O75691 Q8NDD1
O75691 Q9NRX1
O75691 O43818
O75691 Q9Y2P8
O75691 P78316
Q14692 Q9BVJ6
Q14692 Q9H6R4
Q14692 Q9Y324
Q14692 Q13601
Q14692 Q9BVI4
Q14692 Q8NDD1
Q14692 Q9NRX1
Q14692 O43818
Q14692 Q9Y2P8
Q14692 P78316
Q9BVJ6 Q9H6R4
Q9BVJ6 Q9Y324
Q9BVJ6 Q13601
Q9BVJ6 Q9BVI4
Q9BVJ6 Q8NDD1
Q9BVJ6 Q9NRX1
Q9BVJ6 O43818
Q9BVJ6 Q9Y2P8
Q9BVJ6 P78316
Q9H6R4 Q9Y324
Q9H6R4 Q13601
Q9H6R4 Q9BVI4
Q9H6R4 Q8NDD1
Q9H6R4 Q9NRX1
Q9H6R4 O43818
Q9H6R4 Q9Y2P8
Q9H6R4 P78316
Q9Y324 Q13601
Q9Y324 Q9BVI4
Q9Y324 Q8NDD1
Q9Y324 Q9NRX1
Q9Y324 O43818
Q9Y324 Q9Y2P8
Q9Y324 P78316
Q13601 Q9BVI4
Q13601 Q8NDD1
Q13601 Q9NRX1
Q13601 O43818
Q13601 Q9Y2P8
Q13601 P78316
Q9BVI4 Q8NDD1
Q9BVI4 Q9NRX1
Q9BVI4 O43818
Q9BVI4 Q9Y2P8
Q9BVI4 P78316
Q8NDD1 Q9NRX1
Q8NDD1 O43818
Q8NDD1 Q9Y2P8
Q8NDD1 P78316
Q9NRX1 O43818
Q9NRX1 Q9Y2P8
Q9NRX1 P78316
O43818 Q9Y2P8
O43818 P78316
Q9Y2P8 P78316
Q7L523 Q9HB90
Q9UH92 Q99583
Q9UH92 Q9HAP2
Q9UH92 Q9NP71
Q96LI5 Q9UFF9
Q9UNS1 Q9BVW5
Q96GX1 Q9NXB0
Q96GX1 Q8N157
Q96GX1 Q9P2K1
Q96GX1 Q86X19
Q96GX1 Q9BPU9
Q96GX1 Q96Q45
Q96GX1 Q9UPM9
Q96GX1 Q9P0N5
Q96GX1 Q2MV58
Q96GX1 Q6UX40
Q96GX1 Q6NUS6
Q96GX1 Q5HYA8
Q96GX1 Q9H6L2
Q9NXB0 Q8N157
Q9NXB0 Q9P2K1
Q9NXB0 Q86X19
Q9NXB0 Q9BPU9
Q9NXB0 Q96Q45
Q9NXB0 Q9UPM9
Q9NXB0 Q9P0N5
Q9NXB0 Q2MV58
Q9NXB0 Q6UX40
Q9NXB0 Q6NUS6
Q9NXB0 Q5HYA8
Q9NXB0 Q9H6L2
Q8N157 Q9P2K1
Q8N157 Q86X19
Q8N157 Q9BPU9
Q8N157 Q96Q45
Q8N157 Q9UPM9
Q8N157 Q9P0N5
Q8N157 Q2MV58
Q8N157 Q6UX40
Q8N157 Q6NUS6
Q8N157 Q5HYA8
Q8N157 Q9H6L2
Q9P2K1 Q86X19
Q9P2K1 Q9BPU9
Q9P2K1 Q96Q45
Q9P2K1 Q9UPM9
Q9P2K1 Q9P0N5
Q9P2K1 Q2MV58
Q9P2K1 Q6UX40
Q9P2K1 Q6NUS6
Q9P2K1 Q5HYA8
Q9P2K1 Q9H6L2
Q86X19 Q9BPU9
Q86X19 Q96Q45
Q86X19 Q9UPM9
Q86X19 Q9P0N5
Q86X19 Q2MV58
Q86X19 Q6UX40
Q86X19 Q6NUS6
Q86X19 Q5HYA8
Q86X19 Q9H6L2
Q9BPU9 Q96Q45
Q9BPU9 Q9UPM9
Q9BPU9 Q9P0N5
Q9BPU9 Q2MV58
Q9BPU9 Q6UX40
Q9BPU9 Q6NUS6
Q9BPU9 Q5HYA8
Q9BPU9 Q9H6L2
Q96Q45 Q9UPM9
Q96Q45 Q9P0N5
Q96Q45 Q2MV58
Q96Q45 Q6UX40
Q96Q45 Q6NUS6
Q96Q45 Q5HYA8
Q96Q45 Q9H6L2
Q9UPM9 Q9P0N5
Q9UPM9 Q2MV58
Q9UPM9 Q6UX40
Q9UPM9 Q6NUS6
Q9UPM9 Q5HYA8
Q9UPM9 Q9H6L2
Q9P0N5 Q2MV58
Q9P0N5 Q6UX40
Q9P0N5 Q6NUS6
Q9P0N5 Q5HYA8
Q9P0N5 Q9H6L2
Q2MV58 Q6UX40
Q2MV58 Q6NUS6
Q2MV58 Q5HYA8
Q2MV58 Q9H6L2
Q6UX40 Q6NUS6
Q6UX40 Q5HYA8
Q6UX40 Q9H6L2
Q6NUS6 Q5HYA8
Q6NUS6 Q9H6L2
Q5HYA8 Q9H6L2
Q15051 O15078
Q7L014 O43719
Q9NQ89 Q8NB37
Q9NQ89 O95825
Q9NQ89 Q6ZMI0
Q9NQ89 Q8TEA7
Q8NB37 O95825
Q8NB37 Q6ZMI0
Q8NB37 Q8TEA7
O95825 Q6ZMI0
O95825 Q8TEA7
Q6ZMI0 Q8TEA7
Q68CL5 O95922
Q68CL5 Q6ZTW0
Q68CL5 Q9BSH3
Q68CL5 Q8IUZ0
O95922 Q6ZTW0
O95922 Q9BSH3
O95922 Q8IUZ0
Q6ZTW0 Q9BSH3
Q6ZTW0 Q8IUZ0
Q9BSH3 Q8IUZ0
P61158 O15143
P61158 Q9BPX5
O15143 Q9BPX5
Q13564 Q8TBC4
Q96NG3 Q96M63
Q96NG3 A5D8V7
Q96NG3 Q5T2S8
Q96NG3 Q9HAE3
Q96M63 A5D8V7
Q96M63 Q5T2S8
Q96M63 Q9HAE3
A5D8V7 Q5T2S8
A5D8V7 Q9HAE3
Q5T2S8 Q9HAE3
P35612 P35611
P35611 Q9UEY8
Q16816 P46020
Q99543 Q0VDF9
Q8N163 Q5BKZ1
O60683 O00623
O60683 P28328
O00623 P28328
URS00000478B7 Q9UHB9
URS00000478B7 P49458
URS00000478B7 O76094
URS00000478B7 P37108
URS00000478B7 P61011
URS00000478B7 P09132
Q9UHB9 P49458
Q9UHB9 O76094
Q9UHB9 P37108
Q9UHB9 P61011
Q9UHB9 P09132
P49458 O76094
P49458 P37108
P49458 P61011
P49458 P09132
O76094 P37108
O76094 P61011
O76094 P09132
P37108 P61011
P37108 P09132
P61011 P09132
Q9Y2W1 Q9NYF8
O94822 Q9BQ70
O94822 O60524
Q9BQ70 O60524
Q9Y6A1 Q9UKY4
Q8WTX7 A6NHX0
P54727 Q01831
Q01831 P54725
Q07326 Q5H8A4
Q07326 Q8TEQ8
Q9UNX4 Q9NYH9
Q9UNX4 Q12788
Q9UNX4 Q8NI36
Q9UNX4 Q15269
Q9UNX4 Q9Y5J1
Q9NYH9 Q12788
Q9NYH9 Q8NI36
Q9NYH9 Q15269
Q9NYH9 Q9Y5J1
Q12788 Q8NI36
Q12788 Q15269
Q12788 Q9Y5J1
Q8NI36 Q15269
Q8NI36 Q9Y5J1
Q15269 Q9Y5J1
Q92989 O94913
Q92989 Q9BSV6
Q92989 Q7Z6J9
Q92989 Q8NCE0
Q92989 Q8WW01
P33240 Q9P2I0
P33240 Q9UKF6
P33240 Q92797
P33240 Q05048
P33240 Q12996
Q9P2I0 Q9UKF6
Q9P2I0 Q92797
Q9P2I0 Q6UN15
Q9P2I0 Q9C0J8
Q9P2I0 O95639
Q9P2I0 Q10570
Q9UKF6 Q92797
Q9UKF6 Q6UN15
Q9UKF6 Q9C0J8
Q9UKF6 O95639
Q9UKF6 Q10570
Q92797 Q6UN15
Q92797 Q9C0J8
Q92797 O95639
Q92797 Q10570
Q9H3S5 Q8TBF5
Q6UN15 Q9C0J8
Q6UN15 O95639
Q6UN15 Q10570
Q9C0J8 O95639
Q9C0J8 Q10570
O95639 Q10570
Q05048 Q12996
Q05048 Q9H0L4
Q12996 Q9H0L4
Q969L4 M17910
Q969L4 P83369
M17910 P83369
Q9BSV6 Q7Z6J9
Q9BSV6 Q8NCE0
Q9BSV6 Q8WW01
Q7Z6J9 Q8NCE0
Q7Z6J9 Q8WW01
Q8NCE0 Q8WW01
Q659A1 Q9Y2F5
Q659A1 P55199
Q659A1 Q8N5P1
Q659A1 O00472
Q659A1 Q9HB65
Q9Y2F5 P55199
Q9Y2F5 Q8N5P1
Q9Y2F5 O00472
Q9Y2F5 Q9HB65
P55199 Q8N5P1
Q8N5P1 O00472
Q8N5P1 Q9HB65
P41091 P20042
P41091 P05198
P20042 P05198
P38117 P13804
P38117 456215
P13804 456215
Q6NZY4 P42285
Q6NZY4 Q9Y580
P42285 Q9Y580
P42285 Q8NDF8
P42285 Q8N3Z6
P42285 Q5XG87
P42285 Q86U42
P42285 O60293
P42285 Q8IXZ2
P42285 Q5T8P6
P42285 Q9P2N5
Q6PGP7 Q15477
Q8NDF8 Q8N3Z6
Q8N3Z6 Q5XG87
Q86U42 O60293
Q86U42 Q8IXZ2
Q86U42 Q5T8P6
Q86U42 Q9P2N5
O60293 Q8IXZ2
O60293 Q5T8P6
O60293 Q9P2N5
Q8IXZ2 Q5T8P6
Q8IXZ2 Q9P2N5
Q66K64 Q9BW61
Q68CZ1 O75161
Q68CZ1 O15259
O75161 O15259
P13726 0000033638
P00709 P15291
O75445 Q8WXG9
O75445 Q9P202
O75445 Q9H5P4
Q8WXG9 Q9P202
Q8WXG9 Q9H5P4
Q9P202 Q9H5P4
P53384 Q9Y5Y2
Q96Q15 Q9H0W8
Q96Q15 Q8ND04
Q9H0W8 Q8ND04
Q9H6Q4 Q96T76
Q9H6Q4 Q9Y3D0
Q9H6Q4 O76071
Q9H6Q4 Q9H5X1
Q96T76 Q9Y3D0
Q96T76 O76071
Q9Y3D0 O76071
O76071 Q9H5X1
O75147 Q9H0W5
Q8IYB8 Q8TCS8
Q9Y376 Q9C0K7
Q14137 O00541
Q14137 Q9GZL7
O00541 Q9GZL7
P55210 0000004617
P55210 0000004619
0000004617 0000004619
P48507 P48506
Q9H147 Q6PJG2
Q99575 P78345
Q99575 P78346
Q99575 O95707
Q99575 O75817
Q99575 O75818
Q99575 Q969H6
Q99575 Q9BUL9
Q99575 URS000013F331
Q99575 Q9H633
Q99575 O95059
P78345 P78346
P78345 O95707
P78345 O75817
P78345 O75818
P78345 Q969H6
P78345 Q9BUL9
P78345 URS000013F331
P78345 Q9H633
P78345 O95059
P78346 O95707
P78346 O75817
P78346 O75818
P78346 Q969H6
P78346 Q9BUL9
P78346 URS000013F331
P78346 Q9H633
P78346 O95059
O95707 O75817
O95707 O75818
O95707 Q969H6
O95707 Q9BUL9
O95707 URS000013F331
O95707 Q9H633
O95707 O95059
O75817 O75818
O75817 Q969H6
O75817 Q9BUL9
O75817 URS000013F331
O75817 Q9H633
O75817 O95059
O75818 Q969H6
O75818 Q9BUL9
O75818 URS000013F331
O75818 Q9H633
O75818 O95059
Q969H6 Q9BUL9
Q969H6 URS000013F331
Q969H6 Q9H633
Q969H6 O95059
Q9BUL9 URS000013F331
Q9BUL9 Q9H633
Q9BUL9 O95059
URS000013F331 Q9H633
URS000013F331 O95059
Q9H633 O95059
P16234 P09619
P16234 Q9NRA1
P16234 Q9GZP0
P09619 Q9NRA1
P09619 Q9GZP0
P53611 Q92696
P02100 P02008
P02008 P69891
P02008 P69892
P33992 Q14566
P33992 P25205
P33992 P33993
P33992 P33991
P33992 P49736
Q14566 P25205
Q14566 P33993
Q14566 P33991
Q14566 P49736
P25205 P33993
P25205 P33991
P25205 P49736
P33993 P33991
P33993 P49736
P33991 P49736
O75899 Q9UBS5
Q05329 Q99259
Q12809 P15382
Q12809 Q9Y6J6
Q15853 P22415
Q9NRR4 Q8WYQ5
O15066 Q9Y496
O15066 Q92845
Q9Y496 O14782
Q9Y496 Q92845
O60896 0000030176
O14782 Q92845
Q16526 O15055
Q16526 O15534
Q16526 P56645
O15055 Q49AN0
Q49AN0 O15534
Q49AN0 P56645
Q6P2C8 Q9Y2X0
Q6P2C8 Q15648
Q6P2C8 Q71SY5
Q6P2C8 O95402
Q6P2C8 Q9NX70
Q6P2C8 Q13503
Q6P2C8 Q9NPJ6
Q6P2C8 Q9P086
Q6P2C8 Q9H944
Q6P2C8 Q9NVC6
Q6P2C8 O75448
Q6P2C8 Q96G25
Q6P2C8 Q15528
Q6P2C8 Q9BTT4
Q6P2C8 Q9NWA0
Q6P2C8 Q9BUE0
Q6P2C8 Q9Y3C7
Q6P2C8 O75586
Q6P2C8 O60244
Q6P2C8 Q96RN5
Q6P2C8 Q9ULK4
Q6P2C8 Q96HR3
Q6P2C8 Q9H204
Q6P2C8 O43513
Q6P2C8 A0JLT2
Q9Y2X0 Q15648
Q9Y2X0 Q71SY5
Q9Y2X0 O95402
Q9Y2X0 Q9NX70
Q9Y2X0 Q13503
Q9Y2X0 Q9NPJ6
Q9Y2X0 Q9P086
Q9Y2X0 Q9H944
Q9Y2X0 Q9NVC6
Q9Y2X0 O75448
Q9Y2X0 Q96G25
Q9Y2X0 Q15528
Q9Y2X0 Q9BTT4
Q9Y2X0 Q9NWA0
Q9Y2X0 Q9BUE0
Q9Y2X0 Q9Y3C7
Q9Y2X0 O75586
Q9Y2X0 O60244
Q9Y2X0 Q96RN5
Q9Y2X0 Q9ULK4
Q9Y2X0 Q96HR3
Q9Y2X0 Q9H204
Q9Y2X0 O43513
Q9Y2X0 A0JLT2
Q15648 Q71SY5
Q15648 O95402
Q15648 Q9NX70
Q15648 Q13503
Q15648 Q9NPJ6
Q15648 Q9P086
Q15648 Q9H944
Q15648 Q9NVC6
Q15648 O75448
Q15648 Q96G25
Q15648 Q15528
Q15648 Q9BTT4
Q15648 Q9NWA0
Q15648 Q9BUE0
Q15648 Q9Y3C7
Q15648 O75586
Q15648 O60244
Q15648 Q96RN5
Q15648 Q9ULK4
Q15648 Q96HR3
Q15648 Q9H204
Q15648 O43513
Q15648 A0JLT2
Q71SY5 O95402
Q71SY5 Q9NX70
Q71SY5 Q13503
Q71SY5 Q9NPJ6
Q71SY5 Q9P086
Q71SY5 Q9H944
Q71SY5 Q9NVC6
Q71SY5 O75448
Q71SY5 Q96G25
Q71SY5 Q15528
Q71SY5 Q9BTT4
Q71SY5 Q9NWA0
Q71SY5 Q9BUE0
Q71SY5 Q9Y3C7
Q71SY5 O75586
Q71SY5 O60244
Q71SY5 Q96RN5
Q71SY5 Q9ULK4
Q71SY5 Q96HR3
Q71SY5 Q9H204
Q71SY5 O43513
Q71SY5 A0JLT2
O95402 Q9NX70
O95402 Q13503
O95402 Q9NPJ6
O95402 Q9P086
O95402 Q9H944
O95402 Q9NVC6
O95402 O75448
O95402 Q96G25
O95402 Q15528
O95402 Q9BTT4
O95402 Q9NWA0
O95402 Q9BUE0
O95402 Q9Y3C7
O95402 O75586
O95402 O60244
O95402 Q96RN5
O95402 Q9ULK4
O95402 Q96HR3
O95402 Q9H204
O95402 O43513
O95402 A0JLT2
Q9NX70 Q13503
Q9NX70 Q9NPJ6
Q9NX70 Q9P086
Q9NX70 Q9H944
Q9NX70 Q9NVC6
Q9NX70 O75448
Q9NX70 Q96G25
Q9NX70 Q15528
Q9NX70 Q9BTT4
Q9NX70 Q9NWA0
Q9NX70 Q9BUE0
Q9NX70 Q9Y3C7
Q9NX70 O75586
Q9NX70 O60244
Q9NX70 Q96RN5
Q9NX70 Q9ULK4
Q9NX70 Q96HR3
Q9NX70 Q9H204
Q9NX70 O43513
Q9NX70 A0JLT2
Q13503 Q9NPJ6
Q13503 Q9P086
Q13503 Q9H944
Q13503 Q9NVC6
Q13503 O75448
Q13503 Q96G25
Q13503 Q15528
Q13503 Q9BTT4
Q13503 Q9NWA0
Q13503 Q9BUE0
Q13503 Q9Y3C7
Q13503 O75586
Q13503 O60244
Q13503 Q96RN5
Q13503 Q9ULK4
Q13503 Q96HR3
Q13503 Q9H204
Q13503 O43513
Q13503 A0JLT2
Q9NPJ6 Q9P086
Q9NPJ6 Q9H944
Q9NPJ6 Q9NVC6
Q9NPJ6 O75448
Q9NPJ6 Q96G25
Q9NPJ6 Q15528
Q9NPJ6 Q9BTT4
Q9NPJ6 Q9NWA0
Q9NPJ6 Q9BUE0
Q9NPJ6 Q9Y3C7
Q9NPJ6 O75586
Q9NPJ6 O60244
Q9NPJ6 Q96RN5
Q9NPJ6 Q9ULK4
Q9NPJ6 Q96HR3
Q9NPJ6 Q9H204
Q9NPJ6 O43513
Q9NPJ6 A0JLT2
Q9P086 Q9H944
Q9P086 Q9NVC6
Q9P086 O75448
Q9P086 Q96G25
Q9P086 Q15528
Q9P086 Q9BTT4
Q9P086 Q9NWA0
Q9P086 Q9BUE0
Q9P086 Q9Y3C7
Q9P086 O75586
Q9P086 O60244
Q9P086 Q96RN5
Q9P086 Q9ULK4
Q9P086 Q96HR3
Q9P086 Q9H204
Q9P086 O43513
Q9P086 A0JLT2
Q9H944 Q9NVC6
Q9H944 O75448
Q9H944 Q96G25
Q9H944 Q15528
Q9H944 Q9BTT4
Q9H944 Q9NWA0
Q9H944 Q9BUE0
Q9H944 Q9Y3C7
Q9H944 O75586
Q9H944 O60244
Q9H944 Q96RN5
Q9H944 Q9ULK4
Q9H944 Q96HR3
Q9H944 Q9H204
Q9H944 O43513
Q9H944 A0JLT2
Q9NVC6 O75448
Q9NVC6 Q96G25
Q9NVC6 Q15528
Q9NVC6 Q9BTT4
Q9NVC6 Q9NWA0
Q9NVC6 Q9BUE0
Q9NVC6 Q9Y3C7
Q9NVC6 O75586
Q9NVC6 O60244
Q9NVC6 Q96RN5
Q9NVC6 Q9ULK4
Q9NVC6 Q96HR3
Q9NVC6 Q9H204
Q9NVC6 O43513
Q9NVC6 A0JLT2
O75448 Q96G25
O75448 Q15528
O75448 Q9BTT4
O75448 Q9NWA0
O75448 Q9BUE0
O75448 Q9Y3C7
O75448 O75586
O75448 O60244
O75448 Q96RN5
O75448 Q9ULK4
O75448 Q96HR3
O75448 Q9H204
O75448 O43513
O75448 A0JLT2
Q96G25 Q15528
Q96G25 Q9BTT4
Q96G25 Q9NWA0
Q96G25 Q9BUE0
Q96G25 Q9Y3C7
Q96G25 O75586
Q96G25 O60244
Q96G25 Q96RN5
Q96G25 Q9ULK4
Q96G25 Q96HR3
Q96G25 Q9H204
Q96G25 O43513
Q96G25 A0JLT2
Q15528 Q9BTT4
Q15528 Q9NWA0
Q15528 Q9BUE0
Q15528 Q9Y3C7
Q15528 O75586
Q15528 O60244
Q15528 Q96RN5
Q15528 Q9ULK4
Q15528 Q96HR3
Q15528 Q9H204
Q15528 O43513
Q15528 A0JLT2
Q9BTT4 Q9NWA0
Q9BTT4 Q9BUE0
Q9BTT4 Q9Y3C7
Q9BTT4 O75586
Q9BTT4 O60244
Q9BTT4 Q96RN5
Q9BTT4 Q9ULK4
Q9BTT4 Q96HR3
Q9BTT4 Q9H204
Q9BTT4 O43513
Q9BTT4 A0JLT2
Q9NWA0 Q9BUE0
Q9NWA0 Q9Y3C7
Q9NWA0 O75586
Q9NWA0 O60244
Q9NWA0 Q96RN5
Q9NWA0 Q9ULK4
Q9NWA0 Q96HR3
Q9NWA0 Q9H204
Q9NWA0 O43513
Q9NWA0 A0JLT2
Q9BUE0 Q9Y3C7
Q9BUE0 O75586
Q9BUE0 O60244
Q9BUE0 Q96RN5
Q9BUE0 Q9ULK4
Q9BUE0 Q96HR3
Q9BUE0 Q9H204
Q9BUE0 O43513
Q9BUE0 A0JLT2
Q9Y3C7 O75586
Q9Y3C7 O60244
Q9Y3C7 Q96RN5
Q9Y3C7 Q9ULK4
Q9Y3C7 Q96HR3
Q9Y3C7 Q9H204
Q9Y3C7 O43513
Q9Y3C7 A0JLT2
O75586 O60244
O75586 Q96RN5
O75586 Q9ULK4
O75586 Q96HR3
O75586 Q9H204
O75586 O43513
O75586 A0JLT2
O60244 Q96RN5
O60244 Q9ULK4
O60244 Q96HR3
O60244 Q9H204
O60244 O43513
O60244 A0JLT2
Q96RN5 Q9ULK4
Q96RN5 Q96HR3
Q96RN5 Q9H204
Q96RN5 O43513
Q96RN5 A0JLT2
Q9ULK4 Q96HR3
Q9ULK4 Q9H204
Q9ULK4 O43513
Q9ULK4 A0JLT2
Q96HR3 Q9H204
Q96HR3 O43513
Q96HR3 A0JLT2
Q9H204 O43513
Q9H204 A0JLT2
O43513 A0JLT2
O00327 O15516
O15516 Q8WYA1
Q93074 Q9UHV7
Q93074 Q9BWU1
Q9UHV7 Q9BWU1
Q9NZV8 Q9NS61
Q9NZI2 Q9UK17
O15111 O14920
O15111 Q9Y6K9
O14920 Q9Y6K9
O43482 Q6P0N0
O43482 Q9NYP9
Q6P0N0 Q9NYP9
P48544 P48549
P19429 P45379
P19429 P63316
P45379 P63316
P18827 Q8WUM4
P18827 O00560
Q8WUM4 O00560
P08238 Q16543
Q16543 P07900
