3580 19159
4471 4486
4471 5130
4471 4000
4471 2616
4471 2070
4471 870
4471 3273
4471 2525
4471 1498
4471 3413
4471 54
4471 2985
4471 4887
4471 4902
4471 3733
4471 3665
4471 5423
4471 3776
4471 2364
4471 5597
4471 627
4471 5663
4471 420
4471 4402
4471 3739
4471 2512
4486 5130
4486 2826
5130 2826
5130 5197
2899 294
2899 5354
2899 369
2899 2117
2899 1216
2899 2669
2899 217
294 369
294 2117
294 1216
294 2669
294 217
5354 1027
5354 1877
5354 1610
5354 3219
5354 1592
5354 232
5354 475
5354 3243
1087 2888
1087 5060
2888 5060
4910 2317
2317 2977
2317 3467
2677 2040
2040 549
2040 2981
2525 3733
2525 1498
2525 4000
2525 372
2525 2070
2525 870
2525 3273
3733 1498
3733 2616
3733 4000
3733 3451
3733 2070
3733 870
3733 3273
3733 2826
1498 2728
1498 4000
1498 2070
1498 3273
204 5543
204 3463
204 464
204 2386
5543 3463
5543 464
3463 464
3463 2386
464 2386
2363 297
297 985
5342 3289
4103 601
601 2161
601 513
601 4154
4815 4706
4815 3051
4815 5151
4706 4606
4706 961
4706 696
4706 1883
4706 493
4706 4246
4706 5161
1995 3845
4153 357
4153 4497
4153 2965
4153 537
4153 1938
4153 320
4153 538
357 4497
357 2965
357 1938
357 3892
4497 2965
4497 537
4497 3892
2965 537
2965 3892
2965 1938
2498 4178
2592 1939
2592 4459
2592 3766
1939 4459
1939 3766
1939 5463
1939 1910
1939 5087
1939 3272
1939 84
1939 819
1939 419
1939 3341
1939 4630
1939 3596
1939 2440
1939 2372
1939 707
1939 520
1939 3099
1939 2258
1939 5642
1939 1186
4459 3766
4459 5463
4459 1910
4459 5087
4459 3272
4459 84
4459 819
4459 419
4459 3341
4459 4630
4459 3596
4459 2440
4459 2372
4459 707
4459 520
4459 3099
4459 2258
4459 5642
4459 1186
3766 5463
3766 1910
3766 5087
3766 3272
3766 84
3766 819
3766 419
3766 3341
3766 4630
3766 3596
3766 2440
3766 2372
3766 707
3766 520
3766 3099
3766 2258
3766 5642
3766 1186
4606 4038
537 3892
537 1938
3892 1938
1606 1095
1606 37
1606 3480
1606 4922
1095 37
1095 3480
1095 4922
37 3480
37 4922
3480 4922
3593 701
3593 2204
3593 1611
701 2204
701 1611
2204 1611
3526 2920
1082 3444
1082 4390
1082 503
1082 1199
1082 3489
1082 374
1082 4796
1082 3810
3444 4390
3444 503
3444 1199
3444 3489
3444 374
3444 4796
3444 3810
244 4546
244 242
244 4074
4546 242
4546 4074
242 4074
4074 5493
5493 4600
5493 3340
5493 743
1698 2310
1698 3352
2310 3352
1094 3005
1094 367
1094 4409
1094 525
1094 5078
1094 3925
3005 367
3005 1873
3005 4409
3005 525
3005 5078
3005 3925
3005 2276
3005 442
3005 1056
3005 1240
3005 1171
3005 4130
3005 966
3005 4384
3005 5202
3005 2047
367 4409
367 525
367 5078
367 3925
4347 5396
4347 668
4347 140
4347 5578
4347 117
5396 668
5396 140
5396 5578
5396 117
5396 2478
668 140
668 5578
668 117
140 5578
140 117
5578 117
5542 3864
5542 863
5542 2687
5542 935
5542 5478
5542 3636
5542 545
5542 3151
5542 4747
5542 4816
5542 5166
5542 2836
5542 4481
5542 345
5542 3779
3864 863
863 2687
863 4150
863 360
863 4481
926 5251
926 4139
926 3926
5251 1448
5251 4139
5251 3926
5251 5250
1321 3912
1321 33
1321 2991
1321 740
1321 3649
1321 65
1321 5593
3912 33
3912 2991
3912 4473
3912 740
3912 3649
3912 3989
3912 3424
3912 3938
3912 5657
3912 4120
3912 5511
3912 4985
3912 5624
3912 1275
33 2991
33 740
33 3649
33 65
33 5593
2991 4473
2991 740
2991 3649
2991 3989
2991 3424
2991 3938
2991 5657
2991 4120
2991 5511
2991 4985
2991 5624
2991 1275
4473 740
4473 3649
4473 3989
4473 5593
4473 65
4473 5624
4473 1275
4473 5511
4473 4985
740 3649
740 3989
740 5593
740 65
3649 3989
3649 5593
3649 65
3989 5593
3989 65
3989 5624
3989 1275
3989 5511
3989 4985
1930 1625
1625 292
3905 97
3905 2076
3905 466
3905 4518
97 2076
2076 466
2076 4518
5593 65
5593 5624
5593 1275
5593 5657
5593 4120
65 5624
65 1275
65 5657
65 4120
5624 1275
5624 5511
5624 4985
1275 5511
1275 4985
4248 4863
4863 1892
56 3298
56 3932
56 2071
3298 3932
3298 2071
3424 3938
1034 5103
5103 2146
2187 5570
2187 4202
2187 5374
2187 714
2187 3715
2187 2362
2187 5534
2187 2082
5570 4202
5570 5374
5570 714
5570 3715
5570 2362
5570 5534
5570 2082
4202 5374
4202 714
4202 3715
4202 2362
5374 714
5374 3715
5374 2362
5374 5534
5374 2082
714 3715
714 2362
3715 2362
3715 5534
3715 2082
2362 5534
2362 2082
2389 2603
2610 1014
1014 5263
1014 1687
1014 3315
356 1494
356 4714
356 1797
356 2698
1494 2698
15 4924
4924 1554
3125 1024
3125 1124
3125 1162
3125 4424
1024 1124
1024 1162
1024 4424
1024 29
1024 3930
1024 4045
1024 3542
1024 5171
1024 4044
1024 4653
1024 5278
1024 2531
1024 2953
1024 3390
1024 5377
1024 4661
1024 3076
1024 1388
1024 2113
1024 3372
1024 4819
1024 16
1024 1602
4159 408
2160 2615
2160 4760
2160 2527
2615 4760
2615 2527
4760 2527
222 1994
1716 3450
1794 3516
1794 2514
1794 1894
1794 3201
1794 3548
1794 5246
1794 3875
1794 974
1794 2114
1794 1665
3516 2514
3516 1894
3516 3201
3516 3548
3516 5246
3516 3875
3516 974
3516 2114
3516 1665
2514 1894
2514 3201
2514 3548
2514 5246
2514 3875
2514 974
2514 2114
2514 1665
1894 3201
1894 3548
1894 5246
1894 3875
1894 974
1894 2114
1894 1665
3201 3548
3201 5246
3201 3875
3201 974
3201 2114
3201 1665
3548 5246
3548 3875
3548 974
3548 2114
3548 1665
5246 3875
5246 974
5246 2114
5246 1665
3875 974
3875 2114
3875 1665
974 2114
974 1665
2114 1665
5265 3571
3571 5340
3571 4552
3571 771
3571 3356
4011 340
4846 4527
4846 1520
4527 3552
3552 1520
5420 2961
5420 5093
2961 5093
2786 4247
4247 4048
3704 1537
3704 5654
2896 4443
2896 4318
2896 1641
4443 4318
4443 1641
4318 1641
1418 434
1418 1899
1418 5434
1418 1940
1418 5651
434 1899
434 5434
434 1940
1955 2591
1955 694
1955 833
1955 3788
2591 694
2591 833
694 833
694 1343
694 5200
694 4430
694 273
694 932
694 3629
833 1343
833 5200
833 4430
833 273
833 932
833 3629
1724 5367
1724 4842
1724 4057
1132 4657
5678 5489
5678 4238
5678 2960
5678 1764
5678 1477
5678 1844
5678 4525
5678 1586
5678 3145
5489 4238
5489 2960
5489 1764
5489 1477
5489 1844
5489 4525
5489 1586
5489 3145
4238 2960
4238 1764
4238 1477
4238 1844
4238 4525
4238 1586
4238 3145
2960 1764
1764 1477
1764 1844
1764 4525
1764 1586
1764 3145
964 4839
380 3318
380 5215
380 5299
380 4731
380 2172
380 1581
380 105
380 872
380 3972
380 3407
380 2705
380 834
380 4234
5215 2172
5215 1581
4234 3816
3816 3151
3816 2898
3816 5679
2388 25
2388 1076
557 383
557 2001
383 2001
4150 360
2662 484
2662 1514
2662 4405
484 1514
484 3041
1314 2624
1314 1965
1314 1736
1314 1208
1314 482
1314 5098
1314 2566
1314 1268
1314 5427
1314 4344
2624 1965
2624 1736
2624 1208
2624 482
2624 5098
2624 2566
2624 1268
2624 5427
2624 4344
2624 3143
1965 1736
1965 1208
1965 482
1965 5098
1965 2566
1965 1268
1965 5427
1965 4344
1965 3143
1736 1208
1736 482
1736 5098
1736 2566
1736 1268
1736 5427
1736 4344
1736 3143
1208 482
1208 5098
1208 2566
1208 1268
1208 5427
1208 4344
1208 3143
482 5098
482 2566
482 1268
482 5427
482 4344
482 3143
5098 2566
5098 1268
5098 5427
5098 4344
5098 3143
2566 1268
2566 5427
2566 4344
2566 3143
1268 5427
1268 4344
1268 3143
5427 4344
5427 3143
4344 3143
1124 1162
1124 29
1124 3930
1124 4045
1124 3542
1124 5171
1124 4044
1124 4653
1124 5278
1124 2531
1124 2953
1124 3390
1124 3076
1124 1388
1124 2113
1124 3372
1124 5377
1124 4661
1124 4819
1124 1602
1124 16
1162 4424
1162 5557
1162 5705
1162 5248
1162 5592
1162 1044
1162 2351
1162 5539
1162 2654
1162 4685
1162 1384
1162 773
1162 3862
1162 298
1162 5143
1162 3360
1162 157
1162 3967
1162 2873
1162 2190
1162 1481
1162 3494
1162 5587
1162 830
1162 5496
1162 1646
1162 3547
1162 5296
1162 1255
1162 588
1162 2352
1162 3297
1162 2806
1162 5664
1162 1508
1162 1009
1162 2631
1162 403
1162 4121
1162 5387
1162 5056
1162 5191
1162 5468
1162 2396
1162 5479
1162 715
1162 3719
1162 514
1162 4224
1162 783
1162 4567
1162 1540
1162 5292
1162 4624
1162 3597
1162 3132
1162 2646
1162 610
1162 4576
1162 2688
1162 5605
1162 4221
1162 2008
1162 3036
1162 670
1162 263
1162 3916
1162 814
1162 5358
1162 168
1162 2907
1162 1946
1162 2595
1162 2035
1162 5005
1162 1669
1162 1499
1162 4617
1162 3406
1162 1528
1162 5147
1162 4383
1162 3333
1162 2382
1162 1668
1162 2720
1162 100
1162 415
1162 2452
1162 3327
1162 4539
1162 2670
1162 2516
1162 3471
1162 5390
1162 4296
1162 2858
1162 8
1162 3472
1162 5665
1162 119
1162 3150
1162 2445
1162 5634
1162 3349
1162 4544
1162 841
1162 569
1162 5704
1162 4117
1162 4125
1162 2581
1162 5472
1162 1500
1162 2072
1162 1122
1162 3564
1162 5373
1162 1769
1162 3619
1162 478
1162 29
1162 3930
1162 4045
1162 3542
1162 5171
1162 4044
1162 4645
1162 1630
1162 3856
1162 2998
1162 5365
1162 2601
1162 4027
1162 2812
1162 339
1162 1591
1162 791
1162 4653
1162 5278
1162 2531
1162 2953
1162 3390
1162 4394
1162 5377
1162 4661
1162 3076
1162 1388
1162 2113
1162 3372
1162 4819
1162 16
1162 1602
1162 1267
1162 5650
1162 713
1162 750
1162 2602
2434 2779
3665 3776
3665 4187
3665 2616
3665 4000
3665 3451
3665 2070
3665 870
3665 3273
3776 4187
3776 2616
3776 4000
3776 3451
3776 2826
1554 708
1554 1478
2306 4326
2306 5258
2306 671
2306 697
2306 3214
2306 136
2306 4211
2306 75
2306 2356
2306 2935
2306 238
2306 1545
2306 2549
2306 844
2306 3142
2306 729
2306 4711
2306 4666
2306 4270
4326 5258
4326 671
1514 4405
2478 4947
4735 5105
5105 4670
4907 1902
110 1990
110 2467
110 700
110 14
110 2762
110 1658
110 4531
110 2558
110 272
1990 272
1574 3661
1574 2616
1574 3451
1574 2070
1574 3273
3661 2941
3661 2648
3661 5071
3661 4798
3661 6
3661 2368
3661 3208
3661 1404
4203 3884
1789 5286
1789 226
1789 3103
1789 3075
1789 4087
5286 226
5286 3103
5286 3075
5286 4087
1654 3646
1654 2151
1654 4034
1654 3095
1654 5547
3646 2151
3646 4034
3646 3095
3646 5547
2151 4034
2151 3095
2151 5547
4034 3095
4034 5547
3095 5547
3095 4407
3095 3357
3095 3910
3095 5298
5547 4407
5547 3357
2467 272
2467 700
2600 1026
1026 3836
4407 3357
700 2037
700 4080
272 2037
4456 322
5014 3117
5014 3608
5014 762
5014 4989
5014 2391
5014 1695
3117 3608
3117 762
3117 3319
3608 762
3608 4989
3608 2391
3608 1695
3608 3319
3608 776
3608 5672
3608 1770
3608 915
3608 3309
3608 1791
3608 333
3608 2583
3608 4566
3608 5707
762 4989
762 2391
762 1695
4989 2391
4989 3319
4989 776
2391 1695
2391 3319
2391 776
2391 735
5528 3698
5528 4649
5528 1324
5528 1160
5528 2589
5528 837
5528 3113
3698 4649
3698 1324
4649 1324
4649 1160
4649 2589
4649 837
4649 3113
4152 2775
4152 4316
4152 3747
2775 4316
2775 3747
4316 3747
3587 221
3587 5247
221 5247
3822 2018
3822 5234
3822 721
3822 5669
3822 782
3822 2870
3822 2054
3822 2702
3822 703
3822 3522
3822 3767
2018 5234
2018 721
2018 5669
2018 782
2018 2870
2018 2054
2018 2702
2018 703
2018 3522
2018 3767
5234 721
5234 5669
5234 782
5234 2870
5234 2054
5234 2702
5234 703
5234 3522
5234 3767
721 5669
721 782
721 2870
721 2054
721 2702
721 703
721 3522
721 3767
5669 782
5669 2870
5669 2054
5669 2702
5669 703
5669 3522
5669 3767
782 2870
782 2054
782 2702
782 703
782 3522
782 3767
2870 2054
2870 2702
2870 703
2870 3522
2870 3767
2054 2702
2054 703
2054 3522
2054 3767
2702 703
2702 3522
2702 3767
703 3522
703 3767
3522 3767
2668 3353
2668 418
2668 1071
2668 1719
2668 1409
2668 1276
2668 4458
3353 418
3353 1071
3353 1719
418 1071
418 1719
1071 1719
4883 4521
4883 3151
4521 3151
3151 2898
3151 5679
3151 3043
3151 3156
3151 4896
3151 822
3151 1221
3151 1136
3151 2450
3151 3355
3151 472
3151 3373
3151 523
3151 3421
3151 3422
3151 2340
3151 3216
3151 1950
3151 2776
3151 1062
3151 5614
3151 2200
3151 952
3151 3336
3151 4329
3151 5333
3151 4765
3151 990
3151 935
3151 5478
3151 3636
3151 545
3151 4747
3151 4816
3151 5166
3151 2836
3151 5416
3151 4467
3151 2141
3151 1947
3151 1097
3151 132
3151 1128
3151 4925
3151 5402
3151 2420
3151 2704
3151 3598
3151 3388
3151 345
146 147
146 487
146 4660
146 3773
146 3935
146 737
146 4451
146 4845
146 2628
146 1049
146 4411
146 3141
146 3417
146 1976
146 1449
146 2882
146 2726
146 4360
146 1135
146 3651
146 4897
146 1455
146 2025
146 1142
146 2647
146 709
146 2092
146 3614
146 2772
146 3700
146 2143
146 4337
146 3445
146 1775
146 3212
146 3119
146 4483
146 5175
146 141
146 4262
146 306
146 3225
146 3630
147 487
147 4660
147 3773
147 3935
147 737
147 4451
147 4845
147 2628
147 1049
147 4411
147 3141
147 3417
147 1976
147 1449
147 2882
147 2726
147 4360
147 1135
147 3651
147 4897
147 1455
147 2025
147 1142
147 2647
147 709
147 2092
147 3614
147 2772
147 3700
147 2143
147 4337
147 3445
147 1775
147 3212
147 3119
147 4483
147 5175
147 141
147 4262
147 306
147 3225
147 3630
487 4660
487 3773
487 3935
487 737
487 4451
487 4845
487 2628
487 1049
487 4411
487 3141
487 3417
487 1976
487 1449
487 2882
487 2726
487 4360
487 1135
487 3651
487 4897
487 1455
487 2025
487 1142
487 2647
487 709
487 2092
487 3614
487 2772
487 3700
487 2143
487 4337
487 3445
487 1775
487 3212
487 3119
487 4483
487 5175
487 141
487 4262
487 306
487 3225
487 3630
4660 3773
4660 3935
4660 737
4660 4451
4660 4845
4660 2628
4660 1049
4660 4411
4660 3141
4660 3417
4660 1976
4660 1449
4660 2882
4660 2726
4660 4360
4660 1135
4660 3651
4660 4897
4660 1455
4660 2025
4660 1142
4660 2647
4660 709
4660 2092
4660 3614
4660 2772
4660 3700
4660 2143
4660 4337
4660 3445
4660 1775
4660 3212
4660 3119
4660 4483
4660 5175
4660 141
4660 4262
4660 306
4660 3225
4660 3630
3773 3935
3773 737
3773 4451
3773 4845
3773 2628
3773 1049
3773 4411
3773 3141
3773 3417
3773 1976
3773 1449
3773 2882
3773 2726
3773 4360
3773 1135
3773 3651
3773 4897
3773 1455
3773 2025
3773 1142
3773 2647
3773 709
3773 2092
3773 3614
3773 2772
3773 3700
3773 2143
3773 4337
3773 3445
3773 1775
3773 3212
3773 3119
3773 4483
3773 5175
3773 141
3773 4262
3773 306
3773 3225
3773 3630
3935 737
3935 4451
3935 4845
3935 2628
3935 1049
3935 4411
3935 3141
3935 3417
3935 1976
3935 1449
3935 2882
3935 2726
3935 4360
3935 1135
3935 3651
3935 4897
3935 1455
3935 2025
3935 1142
3935 2647
3935 709
3935 2092
3935 3614
3935 2772
3935 3700
3935 2143
3935 4337
3935 3445
3935 1775
3935 3212
3935 3119
3935 4483
3935 5175
3935 141
3935 4262
3935 306
3935 3225
3935 3630
737 4451
737 4845
737 2628
737 1049
737 4411
737 3141
737 3417
737 1976
737 1449
737 2882
737 2726
737 4360
737 1135
737 3651
737 4897
737 1455
737 2025
737 1142
737 2647
737 709
737 2092
737 3614
737 2772
737 3700
737 2143
737 4337
737 3445
737 1775
737 3212
737 3119
737 4483
737 5175
737 141
737 4262
737 306
737 3225
737 3630
4451 4845
4451 2628
4451 1049
4451 4411
4451 3141
4451 3417
4451 1976
4451 1449
4451 2882
4451 2726
4451 4360
4451 1135
4451 3651
4451 4897
4451 1455
4451 2025
4451 1142
4451 2647
4451 709
4451 2092
4451 3614
4451 2772
4451 3700
4451 2143
4451 4337
4451 3445
4451 1775
4451 3212
4451 3119
4451 4483
4451 5175
4451 141
4451 4262
4451 306
4451 3225
4451 3630
4845 2628
4845 1049
4845 4411
4845 3141
4845 3417
4845 1976
4845 1449
4845 2882
4845 2726
4845 4360
4845 1135
4845 3651
4845 4897
4845 1455
4845 2025
4845 1142
4845 2647
4845 709
4845 2092
4845 3614
4845 2772
4845 3700
4845 2143
4845 4337
4845 3445
4845 1775
4845 3212
4845 3119
4845 4483
4845 5175
4845 141
4845 4262
4845 306
4845 3225
4845 3630
2628 1049
2628 4411
2628 3141
2628 3417
2628 1976
2628 1449
2628 2882
2628 2726
2628 4360
2628 1135
2628 3651
2628 4897
2628 1455
2628 2025
2628 1142
2628 2647
2628 709
2628 2092
2628 3614
2628 2772
2628 3700
2628 2143
2628 4337
2628 3445
2628 1775
2628 3212
2628 3119
2628 4483
2628 5175
2628 141
2628 4262
2628 306
2628 3225
2628 3630
1049 4411
1049 3141
1049 3417
1049 1976
1049 1449
1049 2882
1049 2726
1049 4360
1049 1135
1049 3651
1049 4897
1049 1455
1049 2025
1049 1142
1049 2647
1049 709
1049 2092
1049 3614
1049 2772
1049 3700
1049 2143
1049 4337
1049 3445
1049 1775
1049 3212
1049 3119
1049 4483
1049 5175
1049 141
1049 4262
1049 306
1049 3225
1049 3630
4411 3141
4411 3417
4411 1976
4411 1449
4411 2882
4411 2726
4411 4360
4411 1135
4411 3651
4411 4897
4411 1455
4411 2025
4411 1142
4411 2647
4411 709
4411 2092
4411 3614
4411 2772
4411 3700
4411 2143
4411 4337
4411 3445
4411 1775
4411 3212
4411 3119
4411 4483
4411 5175
4411 141
4411 4262
4411 306
4411 3225
4411 3630
3141 3417
3141 1976
3141 1449
3141 2882
3141 2726
3141 4360
3141 1135
3141 3651
3141 4897
3141 1455
3141 2025
3141 1142
3141 2647
3141 709
3141 2092
3141 3614
3141 2772
3141 3700
3141 2143
3141 4337
3141 3445
3141 1775
3141 3212
3141 3119
3141 4483
3141 5175
3141 141
3141 4262
3141 306
3141 3225
3141 3630
3417 1976
3417 1449
3417 2882
3417 2726
3417 4360
3417 1135
3417 3651
3417 4897
3417 1455
3417 2025
3417 1142
3417 2647
3417 709
3417 2092
3417 3614
3417 2772
3417 3700
3417 2143
3417 4337
3417 3445
3417 1775
3417 3212
3417 3119
3417 4483
3417 5175
3417 141
3417 4262
3417 306
3417 3225
3417 3630
1976 1449
1976 2882
1976 2726
1976 4360
1976 1135
1976 3651
1976 4897
1976 1455
1976 2025
1976 1142
1976 2647
1976 709
1976 2092
1976 3614
1976 2772
1976 3700
1976 2143
1976 4337
1976 3445
1976 1775
1976 3212
1976 3119
1976 4483
1976 5175
1976 141
1976 4262
1976 306
1976 3225
1976 3630
1449 2882
1449 2726
1449 4360
1449 1135
1449 3651
1449 4897
1449 1455
1449 2025
1449 1142
1449 2647
1449 709
1449 2092
1449 3614
1449 2772
1449 3700
1449 2143
1449 4337
1449 3445
1449 1775
1449 3212
1449 3119
1449 4483
1449 5175
1449 141
1449 4262
1449 306
1449 3225
1449 3630
2882 2726
2882 4360
2882 1135
2882 3651
2882 4897
2882 1455
2882 2025
2882 1142
2882 2647
2882 709
2882 2092
2882 3614
2882 2772
2882 3700
2882 2143
2882 4337
2882 3445
2882 1775
2882 3212
2882 3119
2882 4483
2882 5175
2882 141
2882 4262
2882 306
2882 3225
2882 3630
2726 4360
2726 1135
2726 3651
2726 4897
2726 1455
2726 2025
2726 1142
2726 2647
2726 709
2726 2092
2726 3614
2726 2772
2726 3700
2726 2143
2726 4337
2726 3445
2726 1775
2726 3212
2726 3119
2726 4483
2726 5175
2726 141
2726 4262
2726 306
2726 3225
2726 3630
4360 1135
4360 3651
4360 4897
4360 1455
4360 2025
4360 1142
4360 2647
4360 709
4360 2092
4360 3614
4360 2772
4360 3700
4360 2143
4360 4337
4360 3445
4360 1775
4360 3212
4360 3119
4360 4483
4360 5175
4360 141
4360 4262
4360 306
4360 3225
4360 3630
1135 3651
1135 4897
1135 1455
1135 2025
1135 1142
1135 2647
1135 709
1135 2092
1135 3614
1135 2772
1135 3700
1135 2143
1135 4337
1135 3445
1135 1775
1135 3212
1135 3119
1135 4483
1135 5175
1135 141
1135 4262
1135 306
1135 3225
1135 3630
3651 4897
3651 1455
3651 2025
3651 1142
3651 2647
3651 709
3651 2092
3651 3614
3651 2772
3651 3700
3651 2143
3651 4337
3651 3445
3651 1775
3651 3212
3651 3119
3651 4483
3651 5175
3651 141
3651 4262
3651 306
3651 3225
3651 3630
4897 1455
4897 2025
4897 1142
4897 2647
4897 709
4897 2092
4897 3614
4897 2772
4897 3700
4897 2143
4897 4337
4897 3445
4897 1775
4897 3212
4897 3119
4897 4483
4897 5175
4897 141
4897 4262
4897 306
4897 3225
4897 3630
1455 2025
1455 1142
1455 2647
1455 709
1455 2092
1455 3614
1455 2772
1455 3700
1455 2143
1455 4337
1455 3445
1455 1775
1455 3212
1455 3119
1455 4483
1455 5175
1455 141
1455 4262
1455 306
1455 3225
1455 3630
2025 1142
2025 2647
2025 709
2025 2092
2025 3614
2025 2772
2025 3700
2025 2143
2025 4337
2025 3445
2025 1775
2025 3212
2025 3119
2025 4483
2025 5175
2025 141
2025 4262
2025 306
2025 3225
2025 3630
1142 2647
1142 709
1142 2092
1142 3614
1142 2772
1142 3700
1142 2143
1142 4337
1142 3445
1142 1775
1142 3212
1142 3119
1142 4483
1142 5175
1142 141
1142 4262
1142 306
1142 3225
1142 3630
2647 709
2647 2092
2647 3614
2647 2772
2647 3700
2647 2143
2647 4337
2647 3445
2647 1775
2647 3212
2647 3119
2647 4483
2647 5175
2647 141
2647 4262
2647 306
2647 3225
2647 3630
709 2092
709 3614
709 2772
709 3700
709 2143
709 4337
709 3445
709 1775
709 3212
709 3119
709 4483
709 5175
709 141
709 4262
709 306
709 3225
709 3630
2092 3614
2092 2772
2092 3700
2092 2143
2092 4337
2092 3445
2092 1775
2092 3212
2092 3119
2092 4483
2092 5175
2092 141
2092 4262
2092 306
2092 3225
2092 3630
3614 2772
3614 3700
3614 2143
3614 4337
3614 3445
3614 1775
3614 3212
3614 3119
3614 4483
3614 5175
3614 141
3614 4262
3614 306
3614 3225
3614 3630
2772 3700
2772 2143
2772 4337
2772 3445
2772 1775
2772 3212
2772 3119
2772 4483
2772 5175
2772 141
2772 4262
2772 306
2772 3225
2772 3630
3700 2143
3700 4337
3700 3445
3700 1775
3700 3212
3700 3119
3700 4483
3700 5175
3700 141
3700 4262
3700 306
3700 3225
3700 3630
2143 4337
2143 3445
2143 1775
2143 3212
2143 3119
2143 4483
2143 5175
2143 141
2143 4262
2143 306
2143 3225
2143 3630
4337 3445
4337 1775
4337 3212
4337 3119
4337 4483
4337 5175
4337 141
4337 4262
4337 306
4337 3225
4337 3630
3445 1775
3445 3212
3445 3119
3445 4483
3445 5175
3445 141
3445 4262
3445 306
3445 3225
3445 3630
1775 3212
1775 3119
1775 4483
1775 5175
1775 141
1775 4262
1775 306
1775 3225
1775 3630
3212 3119
3212 4483
3212 5175
3212 141
3212 4262
3212 306
3212 3225
3212 3630
3119 4483
3119 5175
3119 141
3119 4262
3119 306
3119 3225
3119 3630
4483 5175
4483 141
4483 4262
4483 306
4483 3225
4483 3630
5175 141
5175 4262
5175 306
5175 3225
5175 3630
141 4262
141 306
141 3225
141 3630
4262 306
4262 3225
4262 3630
306 3225
306 3630
3225 3630
3225 2808
3225 4625
3225 4067
3225 2905
3225 2863
3225 4111
5398 1604
5398 460
5398 5123
5398 5552
5398 3834
5398 3699
5398 1003
5398 153
5398 4261
1604 460
1604 5123
1604 5552
1604 3834
1604 3699
1604 1003
1604 153
1604 4261
460 5123
460 5552
460 3834
460 3699
460 1003
460 153
460 4261
2589 1160
837 3113
471 3169
5469 4793
14 5239
2762 5239
3729 4733
3729 4233
3729 5211
3729 4798
3729 939
3729 4766
3729 3478
3729 1084
3729 1376
3729 5224
3729 3827
4424 3930
4424 4045
4424 29
4424 3542
4424 5171
4424 4044
4424 4653
4424 5278
4424 2531
4424 2953
4424 3390
4424 5377
4424 4661
4424 3076
4424 2113
4424 1388
4424 3372
4424 16
4424 1602
4424 4819
5239 2558
5509 3921
5509 1966
3921 1966
3577 5339
3577 3109
3577 1985
3577 1488
370 3006
370 5082
3006 5082
3769 1218
1218 416
1218 1802
1218 4789
1218 3979
5463 1910
5463 5087
5463 419
1910 5087
1910 84
1910 819
1910 419
5087 84
5087 819
4777 3108
300 4024
300 4312
300 5532
300 477
300 5281
300 4021
300 5015
300 2586
4024 4312
4024 5532
4024 477
4024 5281
4024 4021
4024 5015
4024 2586
4312 5532
4312 477
4312 5281
4312 4021
4312 5015
4312 2586
5532 477
5532 5281
5532 4021
5532 5015
5532 2586
2226 1917
2226 4593
2226 2320
1917 4593
1917 2320
1917 925
1917 3017
1917 4526
1917 1747
1917 1837
1917 3102
1917 312
1917 1487
1917 832
1917 3641
1917 5270
1917 5644
1917 1219
1917 3559
1917 1309
1917 3285
1917 4285
1917 2180
1917 805
1917 67
1917 4290
1917 3334
1917 4369
1917 4194
1917 462
1917 2859
1917 769
1917 1855
1917 1684
1917 1515
1917 3754
1917 1286
1917 4513
1917 555
1917 722
1917 855
1917 1783
1917 3817
1917 916
1917 5500
1917 1720
1917 5492
1917 1689
4593 2320
4593 4526
4593 1747
4593 1837
4593 3102
4593 312
4593 1487
4593 832
4593 3641
4593 5270
4593 925
4593 5644
4593 1219
4593 3559
4593 1309
4593 3285
4593 4285
4593 2180
4593 805
4593 67
4593 4290
4593 3334
4593 4369
4593 4194
4593 462
4593 2859
4593 769
4593 1855
4593 1684
4593 1515
4593 3754
4593 1286
4593 4513
4593 555
4593 722
4593 855
4593 1783
4593 3817
4593 916
4593 5500
4593 1720
4593 5492
4593 1689
2320 925
2320 3017
2320 4526
2320 1747
2320 1837
2320 3102
2320 312
2320 1487
2320 832
2320 3641
2320 5270
2320 5644
2320 1219
2320 3559
2320 1309
2320 3285
2320 4285
2320 2180
2320 805
2320 67
2320 4290
2320 3334
2320 4369
2320 4194
2320 462
2320 2859
2320 769
2320 1855
2320 1684
2320 1515
2320 3754
2320 1286
2320 4513
2320 555
2320 722
2320 855
2320 1783
2320 3817
2320 916
2320 5500
2320 1720
2320 5492
2320 1689
2898 5679
5679 3043
5679 3156
5679 4896
5679 822
5679 1221
5679 1136
5679 2450
5679 3355
5679 472
5679 3373
5679 523
5679 3421
5679 3422
5679 2340
5679 3216
5679 1950
5679 2776
5679 1062
5679 5614
5679 2200
5679 952
5679 3336
5679 4329
5679 5333
5679 4765
5679 990
5679 3388
5679 2141
5679 1947
5679 5402
5679 1128
5679 2420
5679 2704
5679 4925
5679 132
5679 3598
5679 1097
5040 3268
5040 4192
5040 5608
5040 838
3268 4192
3268 5608
3268 838
4142 3339
4142 754
4142 1121
4142 363
4142 5245
4142 3093
4142 2579
4142 3207
4142 5275
4142 5684
4142 5199
3339 754
3339 1121
3339 363
3339 5245
3339 3093
3339 2579
3339 3207
3339 5275
3339 5684
3339 5199
754 1121
754 363
754 5245
754 3093
754 2579
754 3207
754 5275
754 5684
754 5199
1121 363
1121 5245
1121 3093
1121 2579
1121 3207
1121 5275
1121 5684
1121 5199
363 5245
363 3093
363 2579
363 3207
363 5275
363 5684
363 5199
5245 3093
5245 2579
5245 3207
5245 5275
5245 5684
5245 5199
3093 2579
3093 3207
3093 5275
3093 5199
2579 3207
2579 5275
2579 5684
2579 5199
3207 5275
3207 5684
5275 5684
5275 5199
4356 1284
4356 574
4356 50
4356 4401
4356 492
4356 3071
4356 922
4356 1091
4356 2969
4356 843
4356 1318
4356 304
4356 1609
4356 3929
4356 3052
4356 4835
4356 5222
4356 3977
1284 574
1284 50
1284 4401
1284 492
1284 3071
1284 922
1284 1091
1284 2969
1284 843
1284 1318
1284 304
1284 1609
1284 3929
1284 3052
1284 4835
1284 5222
1284 3977
574 50
574 4401
574 492
574 3071
574 922
574 1091
574 2969
574 843
574 1318
574 304
574 1609
574 3929
574 3052
574 4835
574 5222
574 3977
2871 307
2871 1557
2871 78
2871 2795
2871 2755
307 2182
307 2755
307 1557
307 78
307 2795
5425 1725
5425 1609
5425 4077
5425 1452
5425 1475
5425 3634
1725 1609
1725 4077
1725 3634
1609 4077
1609 1452
1609 1475
1609 3634
1609 2539
1609 4970
1609 2466
1609 3040
1609 4302
1609 50
1609 4401
1609 492
1609 3071
1609 922
1609 1091
1609 2969
1609 843
1609 1318
1609 304
1609 3929
1609 3052
1609 4835
1609 5222
1609 3977
4077 1452
4077 1475
1452 3634
1475 3634
3634 2539
3634 4970
3634 2466
3634 3040
3634 4302
1806 3981
1806 4006
3981 3753
3981 2013
3981 5305
2539 4970
2539 4302
4970 2466
4970 3040
2466 4302
3040 4302
1283 976
1283 4562
976 4562
4731 105
4731 872
4731 3972
4731 3407
4731 2705
4731 834
2966 3311
2966 1621
3311 3872
2172 1581
1581 1851
1581 5481
1581 591
3204 1278
3204 1798
3204 4963
1278 1798
1278 4963
1798 4963
1442 4149
1262 2139
1262 41
1262 3721
1262 1134
1262 3658
1262 1650
2139 41
2139 3721
2139 1134
2139 3658
2139 1650
41 3721
41 1134
41 3658
41 1650
3721 1134
3721 3658
3721 1650
1134 3658
1134 1650
3658 1650
4782 2941
4782 4329
4782 5702
4782 4798
4782 3913
4782 4494
4782 1417
4782 2370
2941 4329
2941 5702
2941 4798
2941 3913
2941 4494
2941 1417
2941 2370
2941 2648
2941 5071
2941 6
2941 2368
2941 3208
2941 1404
2941 1451
2941 3012
2941 2732
2941 2241
2941 3276
2941 4437
4329 5702
4329 4798
4329 3913
4329 4494
4329 1417
4329 2370
4329 3421
4329 3156
4329 2340
4329 3422
4329 5333
4329 3216
4329 4765
4329 1950
4329 2776
4329 1062
4329 5614
4329 2200
4329 952
4329 472
4329 3336
5702 4798
5702 3913
5702 4494
5702 1417
5702 2370
5702 5380
5702 2488
5702 3081
4798 3913
4798 4494
4798 1417
4798 2370
4798 4233
4798 5211
4798 939
4798 4766
4798 3478
4798 1084
4798 1376
4798 5224
4798 3827
4798 2648
4798 5071
4798 6
4798 2368
4798 3208
4798 1404
4798 1944
4798 180
4798 706
4798 2835
4798 3455
4798 1804
4798 1451
4798 3012
4798 2732
4798 2241
4798 3276
4798 4437
3913 4494
3913 1417
3913 2370
4494 1417
4494 2370
1417 2370
1417 164
1417 98
1417 5111
1417 3114
1417 1632
1417 4814
1417 1841
1417 5117
1417 3052
1417 2390
1417 843
1417 3977
1417 5285
1417 2156
5380 2488
5380 3081
2488 3081
2182 2755
2755 1557
2755 78
2755 2795
164 98
164 5111
164 3114
164 1632
164 4814
164 1841
164 5117
164 3052
164 2390
164 843
164 3977
164 5285
164 2156
98 5111
98 3114
98 1632
98 4814
98 1841
98 5117
98 3052
98 2390
98 843
98 3977
98 5285
98 2156
5111 3114
5111 1632
5111 4814
5111 1841
5111 5117
5111 3052
5111 2390
5111 843
5111 3977
5111 5285
5111 2156
3114 1632
3114 4814
3114 1841
3114 5117
3114 3052
3114 2390
3114 843
3114 3977
3114 5285
3114 2156
1632 4814
1632 1841
1632 5117
1632 3052
1632 2390
1632 843
1632 3977
1632 5285
1632 2156
4814 1841
4814 5117
4814 3052
4814 2390
4814 843
4814 3977
4814 5285
4814 2156
1841 5117
1841 3052
1841 2390
1841 843
1841 3977
1841 5285
1841 2156
5117 3052
5117 2390
5117 843
5117 3977
5117 5285
5117 2156
3052 2390
3052 843
3052 3977
3052 5285
3052 2156
3052 208
3052 304
3052 492
3052 4124
3052 1762
3052 2969
3052 50
3052 4401
3052 3071
3052 922
3052 1091
3052 1318
3052 3929
3052 4835
3052 5222
3052 810
3052 1260
3052 3192
3052 840
3052 2829
2390 843
2390 3977
2390 5285
2390 2156
843 3977
843 5285
843 2156
843 208
843 304
843 492
843 4124
843 1762
843 2969
843 50
843 4401
843 3071
843 922
843 1091
843 1318
843 3929
843 4835
843 5222
843 810
843 1260
843 3192
843 840
843 2829
3977 5285
3977 2156
3977 208
3977 304
3977 492
3977 4124
3977 1762
3977 2969
3977 50
3977 4401
3977 3071
3977 922
3977 1091
3977 1318
3977 3929
3977 4835
3977 5222
3977 620
3977 1734
3977 3180
3977 989
3977 546
3977 4848
3977 2041
3977 2987
3977 4553
3977 2021
3977 1464
3977 4723
3977 4175
3977 2437
3977 628
3977 1864
3977 4618
3977 3602
3977 1738
3977 3943
3977 1086
3977 3882
3977 3001
3977 1080
5285 2156
2741 4287
2741 1913
2741 963
4287 1913
4287 963
4287 3990
4287 3572
1913 963
2087 4115
4600 3340
3340 743
708 5274
708 70
708 1328
708 2401
3928 1047
4047 5405
4047 2503
4047 1402
4047 948
4047 3970
4047 3425
4047 2036
4047 3369
4047 3832
4047 1639
5405 2503
5405 1402
5405 948
5405 3970
5405 3425
5405 2036
5405 3369
5405 3832
5405 1639
2503 1402
2503 948
2503 3970
2503 3425
2503 2036
2503 3369
2503 3832
2503 1639
1402 948
1402 3970
1402 3425
1402 2036
1402 3369
1402 3832
1402 1639
948 3970
948 3425
948 2036
948 3369
948 3832
948 1639
3970 3425
3970 2036
3970 3369
3970 1639
3425 2036
3425 3369
3425 3832
3425 1639
2036 3369
2036 3832
2036 1639
3369 3832
3043 3156
3043 4896
3043 822
3043 1221
3043 1136
3043 2450
3043 3355
3043 472
3043 3373
3043 523
3156 4896
3156 822
3156 1221
3156 1136
3156 2450
3156 3355
3156 472
3156 3373
3156 523
3156 3421
3156 3422
3156 2340
3156 3216
3156 1950
3156 2776
3156 1062
3156 5614
3156 2200
3156 952
3156 3336
3156 5333
3156 4765
3156 990
3156 5564
3156 5711
3156 529
3156 802
3156 309
3156 1825
3156 4429
3156 4697
4896 822
4896 1221
4896 1136
4896 2450
4896 3355
4896 472
4896 3373
4896 523
822 1221
822 1136
822 2450
822 3355
822 472
822 3373
822 523
1221 1136
1221 2450
1221 3355
1221 472
1221 3373
1221 523
1136 2450
1136 3355
1136 472
1136 3373
1136 523
2450 3355
2450 472
2450 3373
2450 523
3355 472
3355 3373
472 3373
472 523
472 3421
472 3422
472 2340
472 3216
472 1950
472 2776
472 1062
472 5614
472 2200
472 952
472 3336
472 5333
472 4765
472 990
472 5564
472 5711
472 529
472 802
472 1825
472 309
472 4429
472 4697
3373 523
1513 1536
5120 3134
3032 2075
3032 2045
2075 2045
2522 4993
5081 5467
1437 4213
1437 2510
4213 2284
4213 2031
2284 2031
3272 5422
5441 371
5441 2338
5441 5384
5441 392
5441 1945
5441 4859
5441 3948
5441 1126
5441 939
5441 3464
5441 5222
5441 530
5441 3550
5441 446
5441 1376
5441 2303
5441 2493
5441 4233
5441 1980
5441 4960
5441 1943
5441 3158
5441 5438
5441 5302
5441 3827
371 2338
371 5384
371 392
371 1945
371 4859
371 3948
371 1126
371 939
371 3464
371 5222
371 530
371 3550
371 446
371 1376
371 2303
371 5488
371 2065
371 3983
371 667
371 4767
371 2872
2338 5384
2338 392
2338 1945
2338 4859
2338 3948
2338 1126
2338 939
2338 3464
2338 5222
2338 530
2338 3550
2338 446
2338 1376
2338 2303
2338 5488
2338 2065
2338 3983
2338 667
2338 4767
2338 2872
2338 3684
5384 392
5384 1945
5384 4859
5384 3948
5384 1126
5384 939
5384 3464
5384 5222
5384 530
5384 3550
5384 446
5384 1376
5384 2303
5384 5211
5384 3827
5384 1980
5384 2493
5384 4233
5384 4960
5384 1943
5384 3158
5384 5438
5384 5302
392 1945
392 4859
392 3948
392 1126
392 939
392 3464
392 5222
392 530
392 3550
392 446
392 1376
392 2303
392 2493
392 4233
392 1980
392 4960
392 1943
392 3158
392 5438
392 5302
392 3827
1945 4859
1945 3948
1945 1126
1945 939
1945 3464
1945 5222
1945 530
1945 3550
1945 446
1945 1376
1945 2303
1945 5488
1945 2065
1945 3983
1945 667
1945 4767
1945 2872
1945 3684
1945 5211
1945 3827
1945 1980
1945 2493
1945 4233
1945 4960
1945 1943
1945 3158
1945 5438
1945 5302
4859 3948
4859 1126
4859 939
4859 3464
4859 5222
4859 530
4859 3550
4859 446
4859 1376
4859 2303
4859 2493
4859 4233
4859 1980
4859 4960
4859 1943
4859 3158
4859 5438
4859 5302
4859 3827
3948 1126
3948 939
3948 3464
3948 5222
3948 530
3948 3550
3948 446
3948 1376
3948 2303
3948 5488
3948 2065
3948 3983
3948 667
3948 4767
3948 2872
3948 3684
1126 939
1126 3464
1126 5222
1126 530
1126 3550
1126 446
1126 1376
1126 2303
1126 5488
1126 2065
1126 3983
1126 667
1126 4767
1126 2872
1126 3684
1126 5211
1126 3827
1126 1980
1126 2493
1126 4233
1126 4960
1126 1943
1126 3158
1126 5438
1126 5302
939 3464
939 5222
939 530
939 3550
939 446
939 1376
939 2303
939 5211
939 3827
939 1980
939 4233
939 4766
939 3478
939 1084
939 5224
939 2493
939 4960
939 1943
939 3158
939 5438
939 5302
3464 5222
3464 530
3464 3550
3464 446
3464 1376
3464 2303
3464 2493
3464 4233
3464 1980
3464 4960
3464 1943
3464 3158
3464 5438
3464 5302
3464 3827
3464 5462
3464 3848
3464 4550
3464 2886
3464 474
5222 530
5222 3550
5222 446
5222 1376
5222 2303
5222 50
5222 4401
5222 492
5222 3071
5222 922
5222 1091
5222 2969
5222 1318
5222 304
5222 3929
5222 4835
5222 5211
5222 3827
5222 1980
5222 2493
5222 4233
5222 4960
5222 1943
5222 3158
5222 5438
5222 5302
530 3550
530 446
530 1376
530 2303
530 5488
530 2065
530 3983
530 667
530 4767
530 2872
530 3684
3550 446
3550 1376
3550 2303
3550 5488
3550 2065
3550 3983
3550 667
3550 4767
3550 2872
3550 3684
446 1376
446 2303
446 5211
446 3827
446 1980
446 2493
446 4233
446 4960
446 1943
446 3158
446 5438
446 5302
1376 2303
1376 4233
1376 5211
1376 4766
1376 3478
1376 1084
1376 5224
1376 2493
1376 1980
1376 4960
1376 1943
1376 3158
1376 5438
1376 5302
2303 5488
2303 2065
2303 3983
2303 667
2303 4767
2303 2872
2303 3684
2303 5211
2303 3827
2303 1980
2303 2493
2303 4233
2303 4960
2303 1943
2303 3158
2303 5438
2303 5302
2273 825
2179 4255
2179 4161
4255 4161
5488 2065
5488 3983
5488 667
5488 4767
5488 2872
5488 3684
2065 3983
2065 667
2065 4767
2065 2872
2065 3684
2065 1991
2065 959
2065 4799
2065 1016
2065 2550
2065 1302
2065 289
2065 3903
3983 667
3983 4767
3983 2872
3983 3684
667 4767
667 2872
667 3684
4767 2872
4767 3684
2872 3684
3753 4006
1509 4611
4611 621
2429 5136
2429 2580
2429 3579
5136 2580
2580 3579
3292 1960
3292 2266
1960 2266
5573 2733
2733 324
3343 1692
3343 1079
1692 1079
334 1174
1174 4361
2510 5631
1838 724
3050 3939
2572 4241
2572 3307
2572 156
2572 148
2572 3815
2572 3737
2572 1962
2572 4805
2572 1077
4241 3307
1557 78
1557 2795
1557 26
1557 4440
1557 4833
1557 953
1557 4791
78 2795
78 26
78 4440
78 4833
78 953
78 4791
1066 5404
1066 1030
5404 1030
1030 2784
1030 1935
3115 871
3115 2780
871 2780
1222 1850
1222 540
1850 540
4757 5227
4757 2353
4757 3470
4757 3366
4757 2283
5227 2353
2353 3470
2353 3366
2353 2283
208 304
208 492
208 4124
208 1762
208 2969
304 492
304 4124
304 1762
304 2969
304 50
304 4401
304 3071
304 922
304 1091
304 1318
304 3929
304 4835
492 4124
492 1762
492 2969
492 50
492 4401
492 3071
492 922
492 1091
492 1318
492 3929
492 4835
4124 1762
4124 2969
1762 2969
2969 50
2969 4401
2969 3071
2969 922
2969 1091
2969 1318
2969 3929
2969 4835
4884 2645
4884 249
2645 249
2645 4658
2645 2922
50 4401
50 3071
50 922
50 1091
50 1318
50 3929
50 4835
4401 3071
4401 922
4401 1091
4401 1318
4401 3929
4401 4835
3071 922
3071 1091
3071 1318
3071 3929
3071 4835
922 1091
922 1318
922 3929
922 4835
1091 1318
1091 3929
1091 4835
1318 3929
1318 4835
1318 620
1318 1734
1318 3180
1318 989
1318 546
1318 4848
1318 2041
1318 2987
1318 4553
1318 2021
1318 1464
1318 4723
1318 4175
1318 2437
1318 628
1318 1864
1318 4618
1318 3602
1318 1738
1318 5221
1318 4801
1318 3943
1318 1086
1318 3882
1318 3001
1318 1080
1318 5341
1318 4031
1318 5228
1318 759
1318 571
1318 5364
1318 1548
1318 432
1318 1
1318 3883
1318 2638
1318 1113
1318 4391
1318 1887
1318 5540
1318 5691
1318 4615
3929 4835
4710 5475
4710 893
4710 1801
4710 2227
4710 2339
4710 1334
4710 1254
5475 893
5475 1801
5475 2227
893 1801
893 2227
1801 2227
2227 2339
2227 1334
2227 1254
2834 5410
2834 4900
2834 3493
4900 3493
2339 1334
2339 1254
1334 1254
5211 3827
5211 1980
5211 4233
5211 4766
5211 3478
5211 1084
5211 5224
3827 1980
3827 4233
3827 4766
3827 3478
3827 1084
3827 5224
3827 2493
3827 4960
3827 1943
3827 3158
3827 5438
3827 5302
1980 2493
1980 4233
1980 4960
1980 1943
1980 3158
1980 5438
1980 5302
5322 1250
5322 1556
5322 1232
1250 1556
1250 1232
3633 4690
3633 4075
3633 1099
3633 4607
3633 4378
3633 186
4690 4075
4690 1099
4690 2281
4690 96
4075 1099
1099 2281
1099 96
4233 4766
4233 3478
4233 1084
4233 5224
4233 2493
4233 4960
4233 1943
4233 3158
4233 5438
4233 5302
4766 3478
4766 1084
4766 5224
3478 1084
3478 5224
1084 5224
84 419
819 419
4978 5628
4978 4991
4978 424
4978 2347
4978 5661
4978 1228
4978 1333
5628 4991
5628 424
5628 2347
5628 5661
4991 424
4991 2347
4991 5661
4991 1228
4991 1333
424 2347
424 5661
424 1228
424 1333
2347 5661
2347 1228
2347 1333
5661 1228
5661 1333
430 5456
5456 4359
5456 2933
5456 3611
5456 4951
5456 2921
5456 3867
5456 5108
3281 1958
3281 3362
1958 3362
4825 2366
2366 5067
5172 3685
5172 2545
5172 1426
5172 1116
3685 2545
3685 1426
3685 1116
3685 3799
3685 1589
3685 3940
3685 5674
3685 4222
3685 2058
3685 129
3685 5499
3685 854
3685 5001
2545 1426
2545 1116
1426 1116
3799 1589
3799 3940
3799 5674
1589 3940
1589 5674
3940 5674
4222 2058
4222 129
2058 129
105 872
105 3972
105 3407
105 2705
105 834
105 832
105 5079
105 2225
105 967
105 199
105 1219
105 3559
105 1309
105 805
105 67
105 4679
105 3334
105 1141
105 2859
105 1943
105 3158
105 4108
105 1684
105 1110
105 3754
105 555
105 856
105 3927
105 1207
105 4032
105 1209
105 1170
105 5139
105 1085
105 2228
105 2722
105 4893
105 5492
105 3285
105 4285
105 2180
105 4998
105 4144
105 5560
105 672
105 4013
105 1118
105 900
105 949
105 1783
105 2617
105 2783
105 1431
105 1876
105 4526
105 4938
105 1487
105 3641
105 5644
105 4290
105 4369
105 462
105 1855
105 2816
105 1515
105 722
105 855
105 2567
105 1747
105 4098
105 4194
105 1035
105 4584
105 769
105 987
105 3102
105 1286
105 4513
105 312
105 1469
105 2993
872 3972
872 3407
872 2705
872 834
3972 3407
3972 2705
3972 834
3407 2705
3407 834
2705 834
5151 2838
3387 4499
3387 4166
4499 4166
1392 5220
1392 2963
5209 4871
5209 2052
5209 4823
5209 3313
5209 1800
4871 2052
4871 4823
4871 3313
4871 5411
4871 5670
4871 4434
4871 4141
4871 1800
2052 4823
2052 3313
2052 5411
2052 5670
2052 4434
2052 4141
4823 3313
4823 5411
4823 5670
4823 4434
4823 4141
4823 1800
3313 5411
3313 5670
3313 4434
3313 4141
3313 1800
620 1734
620 3180
620 989
620 546
620 4848
620 2041
620 2987
620 4553
620 2021
620 4723
620 4618
620 3602
620 1738
620 5221
620 1864
620 4801
620 3943
1734 3180
1734 989
1734 546
1734 4848
1734 2041
1734 2987
1734 4553
1734 2021
1734 1464
1734 4723
1734 4175
1734 2437
1734 628
1734 1864
1734 4801
1734 5221
3180 989
3180 546
3180 4848
3180 2041
3180 2987
3180 4553
3180 2021
3180 1464
3180 4723
3180 4175
3180 2437
3180 628
3180 1864
3180 4618
3180 3602
3180 1738
3180 5221
3180 4801
3180 3943
989 546
989 4848
989 2041
989 2987
989 4553
989 2021
989 1464
989 4723
989 4175
989 2437
989 628
989 1864
989 4618
989 3602
989 1738
989 5221
989 4801
989 3943
989 1086
989 3882
989 3001
989 1080
546 4848
546 2041
546 2987
546 4553
546 2021
546 4723
546 4801
546 5221
546 3943
546 1086
546 1464
546 3882
546 628
546 2437
546 3001
546 1080
4848 2041
4848 2987
4848 4553
4848 2021
4848 4723
4848 4618
4848 3602
4848 1738
4848 5221
4848 1864
4848 3943
2041 2987
2041 4553
2041 2021
2041 4723
2041 4801
2041 5221
2041 1864
2041 3943
2987 4553
2987 2021
2987 1464
2987 4723
2987 4175
2987 2437
2987 628
2987 1864
2987 4618
2987 3602
2987 1738
2987 5221
2987 4801
2987 3943
2987 1086
2987 3882
2987 3001
2987 1080
4553 2021
4553 1464
4553 4723
4553 4175
4553 2437
4553 628
4553 1864
4553 4618
4553 3602
4553 1738
4553 5221
4553 4801
4553 3943
5411 1800
5670 1800
4434 1800
4141 1800
2021 4801
2021 5221
2021 1864
2021 3943
1464 4723
1464 4175
1464 2437
1464 628
1464 1864
1464 1086
1464 3882
1464 3001
1464 1080
1464 5221
4723 4175
4723 2437
4723 628
4723 1864
4723 4618
4723 3602
4723 1738
4723 5221
4723 3943
4175 2437
4175 628
4175 1864
2437 628
2437 1864
2437 1086
2437 3882
2437 3001
2437 1080
2437 5221
628 1864
628 1086
628 3882
628 3001
628 1080
628 5221
1864 4618
1864 3602
1864 1738
1864 5221
1864 3943
1864 4801
1864 1086
1864 3882
1864 3001
1864 1080
4618 3602
4618 1738
4618 5221
3602 1738
3602 5221
1738 5221
5221 4801
5221 3943
5221 1086
5221 3882
5221 3001
5221 1080
4801 3943
3956 4638
2988 191
2988 5053
3510 3515
2042 2716
2042 1482
2042 3789
2716 1482
2716 3789
1482 3789
4607 4378
4607 186
4378 186
2765 3556
5053 404
5053 3017
5053 2588
5053 1114
5053 4454
5053 2955
5053 1281
5053 3888
5053 1269
5053 3954
5053 4315
5053 3446
5053 2989
5053 3580
5053 1361
5053 3991
2759 264
2759 554
2759 1051
264 554
264 1051
554 1051
2394 2719
2394 2239
2394 4388
2394 654
2394 2507
2719 2239
2719 4388
2719 654
2719 2507
2239 4388
2239 654
2239 2507
4388 654
4388 2507
654 2507
1556 1232
2501 5170
3637 3695
2784 1935
2161 513
2161 4154
513 4154
3184 1070
3184 3030
1070 3030
4739 479
156 148
156 3815
156 3737
156 1962
156 4805
156 1077
1086 3882
1086 3001
1086 1080
3882 3001
3882 1080
4805 1077
1952 1906
1952 1326
1952 4033
1952 58
1952 5152
1952 5291
1906 1326
1906 4033
1906 58
1906 5152
1906 206
1906 4320
1906 3997
1326 4033
1326 58
1326 5152
1326 5291
4033 58
4033 5152
4033 5291
4033 206
4033 4320
4033 3997
58 5152
58 5291
5152 5291
5152 206
5152 4320
5152 3997
5291 206
5291 4320
5291 3997
206 4320
206 3997
4320 3997
1823 5641
5641 4433
1256 2142
1256 251
2142 251
3103 3075
3103 4087
3075 4087
26 4440
26 4833
4440 4833
4440 953
4440 4791
1467 4012
326 5121
326 3321
5121 3321
3129 3701
1552 2932
1552 3083
1552 1534
1552 2056
2932 3083
2932 1534
2932 2056
3083 1534
3083 2056
1534 2056
4076 4979
4076 435
4076 1879
4076 3363
4076 1004
4076 4579
4076 3681
4076 4541
4076 233
4076 751
4076 3073
4076 1130
4076 1977
4076 365
4076 4728
4076 1458
4076 4245
4076 2379
4076 4636
4076 377
4076 2196
4076 3874
4076 214
4076 3442
4076 1238
4076 5701
4076 593
4076 2307
4076 1959
4076 5626
4076 1429
4076 2487
4979 435
4979 1879
4979 3363
4979 1004
4979 4579
4979 3681
4979 4541
4979 233
4979 751
4979 3073
4979 1130
4979 1977
4979 365
4979 4728
4979 1458
4979 4245
4979 2379
4979 4636
4979 377
4979 2196
4979 3874
4979 214
4979 3442
4979 1238
4979 5701
4979 593
4979 2307
4979 1959
4979 5626
4979 1429
4979 2487
435 1879
435 3363
435 1004
435 4579
435 3681
435 4541
435 233
435 751
435 3073
435 1130
435 1977
435 365
435 4728
435 1458
435 4245
435 2379
435 4636
435 377
435 2196
435 3874
435 214
435 3442
435 1238
435 5701
435 593
435 2307
435 1959
435 5626
435 1429
435 2487
1879 3363
1879 1004
1879 4579
1879 3681
1879 4541
1879 233
1879 751
1879 3073
1879 1130
1879 1977
1879 365
1879 4728
1879 1458
1879 4245
1879 2379
1879 4636
1879 377
1879 2196
1879 3874
1879 214
1879 3442
1879 1238
1879 5701
1879 593
1879 2307
1879 1959
1879 5626
1879 1429
1879 2487
3363 1004
3363 4579
3363 3681
3363 4541
3363 233
3363 751
3363 3073
3363 1130
3363 1977
3363 365
3363 4728
3363 1458
3363 4245
3363 2379
3363 4636
3363 377
3363 2196
3363 3874
3363 214
3363 3442
3363 1238
3363 5701
3363 593
3363 2307
3363 1959
3363 5626
3363 1429
3363 2487
1004 4579
1004 3681
1004 4541
1004 233
1004 751
1004 3073
1004 1130
1004 1977
1004 365
1004 4728
1004 1458
1004 4245
1004 2379
1004 4636
1004 377
1004 2196
1004 3874
1004 214
1004 3442
1004 1238
1004 5701
1004 593
1004 2307
1004 1959
1004 5626
1004 1429
1004 2487
4579 3681
4579 4541
4579 233
4579 751
4579 3073
4579 1130
4579 1977
4579 365
4579 4728
4579 1458
4579 4245
4579 2379
4579 4636
4579 377
4579 2196
4579 3874
4579 214
4579 3442
4579 1238
4579 5701
4579 593
4579 2307
4579 1959
4579 5626
4579 1429
4579 2487
3681 4541
3681 233
3681 751
3681 3073
3681 1130
3681 1977
3681 365
3681 4728
3681 1458
3681 4245
3681 2379
3681 4636
3681 377
3681 2196
3681 3874
3681 214
3681 3442
3681 1238
3681 5701
3681 593
3681 2307
3681 1959
3681 5626
3681 1429
3681 2487
4541 233
4541 751
4541 3073
4541 1130
4541 1977
4541 365
4541 4728
4541 1458
4541 4245
4541 2379
4541 4636
4541 377
4541 2196
4541 3874
4541 214
4541 3442
4541 1238
4541 5701
4541 593
4541 2307
4541 1959
4541 5626
4541 1429
4541 2487
233 751
233 3073
233 1130
233 1977
233 365
233 4728
233 1458
233 4245
233 2379
233 4636
233 377
233 2196
233 3874
233 214
233 3442
233 1238
233 5701
233 593
233 2307
233 1959
233 5626
233 1429
233 2487
751 3073
751 1130
751 1977
751 365
751 4728
751 1458
751 4245
751 2379
751 4636
751 377
751 2196
751 3874
751 214
751 3442
751 1238
751 5701
751 593
751 2307
751 1959
751 5626
751 1429
751 2487
751 101
751 7
751 5698
751 112
751 1954
751 604
751 5504
751 3205
751 3290
751 5658
751 5714
3073 1130
3073 1977
3073 365
3073 4728
3073 1458
3073 4245
3073 2379
3073 4636
3073 377
3073 2196
3073 3874
3073 214
3073 3442
3073 1238
3073 5701
3073 593
3073 2307
3073 1959
3073 5626
3073 1429
3073 2487
1130 1977
1130 365
1130 4728
1130 1458
1130 4245
1130 2379
1130 4636
1130 377
1130 2196
1130 3874
1130 214
1130 3442
1130 1238
1130 5701
1130 593
1130 2307
1130 1959
1130 5626
1130 1429
1130 2487
1977 365
1977 4728
1977 1458
1977 4245
1977 2379
1977 4636
1977 377
1977 2196
1977 3874
1977 214
1977 3442
1977 1238
1977 5701
1977 593
1977 2307
1977 1959
1977 5626
1977 1429
1977 2487
365 4728
365 1458
365 4245
365 2379
365 4636
365 377
365 2196
365 3874
365 214
365 3442
365 1238
365 5701
365 593
365 2307
365 1959
365 5626
365 1429
365 2487
4728 1458
4728 4245
4728 2379
4728 4636
4728 377
4728 2196
4728 3874
4728 214
4728 3442
4728 1238
4728 5701
4728 593
4728 2307
4728 1959
4728 5626
4728 1429
4728 2487
1458 4245
1458 2379
1458 4636
1458 377
1458 2196
1458 3874
1458 214
1458 3442
1458 1238
1458 5701
1458 593
1458 2307
1458 1959
1458 5626
1458 1429
1458 2487
1458 5036
1458 1259
4245 2379
4245 4636
4245 377
4245 2196
4245 3874
4245 214
4245 3442
4245 1238
4245 5701
4245 593
4245 2307
4245 1959
4245 5626
4245 1429
4245 2487
2379 4636
2379 377
2379 2196
2379 3874
2379 214
2379 3442
2379 1238
2379 5701
2379 593
2379 2307
2379 1959
2379 5626
2379 1429
2379 2487
4636 377
4636 2196
4636 3874
4636 214
4636 3442
4636 1238
4636 5701
4636 593
4636 2307
4636 1959
4636 5626
4636 1429
4636 2487
377 2196
377 3874
377 214
377 3442
377 1238
377 5701
377 593
377 2307
377 1959
377 5626
377 1429
377 2487
2196 3874
2196 214
2196 3442
2196 1238
2196 5701
2196 593
2196 2307
2196 1959
2196 5626
2196 1429
2196 2487
3874 214
3874 3442
3874 1238
3874 5701
3874 593
3874 2307
3874 1959
3874 5626
3874 1429
3874 2487
214 3442
214 1238
214 5701
214 593
214 2307
214 1959
214 5626
214 1429
214 2487
3442 1238
3442 5701
3442 593
3442 2307
3442 1959
3442 5626
3442 1429
3442 2487
1238 5701
1238 593
1238 2307
1238 1959
1238 5626
1238 1429
1238 2487
5701 593
5701 2307
5701 1959
5701 5626
5701 1429
5701 2487
593 2307
593 1959
593 5626
593 1429
593 2487
2307 1959
2307 5626
2307 1429
2307 2487
1959 5626
1959 1429
1959 2487
5626 1429
5626 2487
1429 2487
1429 101
1429 7
1429 5698
1643 4256
1643 2598
1643 3911
1643 1194
1643 2165
1643 3660
1643 4396
1643 4392
4256 2598
4256 3911
4256 1194
4256 2165
4256 3660
4256 4396
4256 4392
2598 3911
2598 1194
2598 2165
2598 3660
2598 4396
2598 4392
3911 1194
3911 2165
3911 3660
3911 4396
3911 4392
1194 2165
1194 3660
1194 4396
1194 4392
2165 3660
2165 4396
2165 4392
3660 4396
4396 4392
3705 2432
3705 1835
2432 1835
597 827
597 1875
827 1875
3583 2758
3583 712
3583 2068
3583 2673
3583 2884
2758 712
2758 2068
2758 2673
2758 2884
712 2068
712 2673
712 2884
2068 2673
2068 2884
2673 2884
1242 2191
1242 1723
1242 2781
1242 4982
1242 3426
1242 1266
1242 728
1242 160
1242 1472
1242 4179
1242 839
1242 4818
1242 1415
1242 277
1242 2454
2191 1723
2191 2781
2191 4982
2191 3426
2191 1266
2191 728
2191 160
2191 1472
2191 4179
2191 839
2191 4818
2191 1415
2191 277
2191 2454
1723 2781
1723 4982
1723 3426
1723 1266
1723 728
1723 160
1723 1472
1723 4179
1723 839
1723 4818
1723 1415
1723 277
1723 2454
2781 4982
2781 3426
2781 1266
2781 728
2781 160
2781 1472
2781 4179
2781 839
2781 4818
2781 1415
2781 277
2781 2454
4982 3426
4982 1266
4982 728
4982 160
4982 1472
4982 4179
4982 839
4982 4818
4982 1415
4982 277
4982 2454
3426 1266
3426 728
3426 160
3426 1472
3426 4179
3426 839
3426 4818
3426 1415
3426 277
3426 2454
1266 728
1266 160
1266 1472
1266 4179
1266 839
1266 4818
1266 1415
1266 277
1266 2454
728 160
728 1472
728 4179
728 839
728 4818
728 1415
728 277
728 2454
160 1472
160 4179
160 839
160 4818
160 1415
160 277
160 2454
1472 4179
1472 839
1472 4818
1472 1415
1472 277
1472 2454
4179 839
4179 4818
4179 1415
4179 277
4179 2454
839 4818
839 1415
839 277
839 2454
4818 1415
4818 277
4818 2454
1415 277
1415 2454
277 2454
4425 4952
4425 4901
4425 1681
4425 3603
4425 1653
4425 2685
4425 1466
4425 2079
4425 2536
4425 4448
4425 2242
4425 1868
4425 3020
4425 2397
4952 4901
4952 1681
4952 3603
4952 1653
4952 3020
4952 1868
4952 2242
4952 3950
4901 1681
4901 3603
4901 1653
4901 3020
4901 2397
4901 1868
4901 2242
4901 3950
1681 3603
1681 1653
1681 2685
1681 1466
1681 2079
1681 2536
1681 4448
1681 2242
1681 3950
1681 3020
1681 2397
3603 1653
3603 2685
3603 1466
3603 2079
3603 2536
3603 4448
3603 3950
3603 1868
3603 3020
3603 2397
1653 2397
1653 1868
1653 2242
1653 3950
145 3154
145 5109
145 1708
145 720
145 3269
145 1337
145 5300
3154 5109
3154 1708
3154 720
3154 3269
3154 1337
3154 5300
3154 3854
3154 4561
3154 230
3154 3802
3154 5514
5109 1708
5109 720
5109 3269
5109 1337
5109 5300
1708 720
1708 3269
1708 1337
1708 5300
720 3269
720 1337
720 5300
720 3854
720 4561
720 230
720 3802
720 5514
3269 1337
3269 5300
1337 5300
5300 3854
5300 4561
5300 230
5300 3802
5300 5514
4908 5288
1860 32
1860 3066
32 3066
4631 1100
4631 4548
4631 1942
4631 1893
1100 4548
1100 1942
1100 4528
1100 3265
1100 1893
4548 1942
4548 4528
4548 3265
1942 4528
1942 3265
1942 1893
2473 4987
2473 5100
2473 3959
2473 3160
4987 5100
4987 3959
4987 3160
5100 3959
5100 794
5100 485
3959 3160
3959 485
3959 794
3160 485
3160 794
485 794
4126 3003
2874 354
2291 829
829 912
829 5037
912 5037
1041 5044
1041 2823
1041 2458
5044 2823
5044 2458
4969 3765
4969 3521
3765 3521
3165 1763
1575 4586
1575 4389
4586 4389
2458 2177
2458 3007
2177 3007
184 2358
184 1776
184 2234
184 4492
184 2534
184 1139
184 4829
2358 1776
2358 5003
1776 2234
1776 5003
1776 4492
1776 2534
1776 1139
2234 5003
2234 4829
5003 4492
5003 2534
5003 1139
5003 4829
5003 5430
4492 5476
4492 5430
5476 5430
5430 1139
2534 4829
1139 4829
455 2471
455 4352
455 1978
455 1926
2471 4352
2471 1978
2471 1926
4352 1978
4352 1926
4323 3752
4323 1822
4323 2240
3752 1822
3752 2240
1822 2240
2968 4973
2968 2264
2968 3011
4973 2264
4973 3011
2264 3011
4028 1656
4028 3896
4028 5075
4028 5131
4028 3640
4028 5450
4028 2321
4028 1006
4028 3278
4028 4889
4028 5636
4028 752
4028 3826
4028 1593
4028 1635
4028 2552
4028 5417
4028 1364
4028 5279
4028 4377
4028 2773
4028 1859
4028 1682
4028 1233
4028 4912
4028 2777
4028 1815
4028 5052
4028 4749
4028 594
1656 3896
1656 5075
1656 5131
1656 3640
1656 5450
1656 2321
1656 1006
1656 3278
1656 4889
1656 5636
1656 752
1656 3826
1656 1593
1656 1635
1656 2552
1656 5417
1656 1364
1656 5279
1656 4377
1656 2773
1656 1859
1656 1682
1656 1233
1656 4912
1656 2777
1656 1815
1656 5052
1656 4749
1656 594
3896 5075
3896 5131
3896 3640
3896 5450
3896 2321
3896 1006
3896 3278
3896 4889
3896 5636
3896 752
3896 3826
3896 1593
3896 1635
3896 2552
3896 5417
3896 1364
3896 5279
3896 4377
3896 2773
3896 1859
3896 1682
3896 1233
3896 4912
3896 2777
3896 1815
3896 5052
3896 4749
3896 594
5075 5131
5075 3640
5075 5450
5075 2321
5075 1006
5075 3278
5075 4889
5075 5636
5075 752
5075 3826
5075 1593
5075 1635
5075 2552
5075 5417
5075 1364
5075 5279
5075 4377
5075 2773
5075 1859
5075 1682
5075 1233
5075 4912
5075 2777
5075 1815
5075 5052
5075 4749
5075 594
5131 3640
5131 5450
5131 2321
5131 1006
5131 3278
5131 4889
5131 5636
5131 752
5131 3826
5131 1593
5131 1635
5131 2552
5131 5417
5131 1364
5131 5279
5131 4377
5131 2773
5131 1859
5131 1682
5131 1233
5131 4912
5131 2777
5131 1815
5131 5052
5131 4749
5131 594
3640 5450
3640 2321
3640 1006
3640 3278
3640 4889
3640 5636
3640 752
3640 3826
3640 1593
3640 1635
3640 2552
3640 5417
3640 1364
3640 5279
3640 4377
3640 2773
3640 1859
3640 1682
3640 1233
3640 4912
3640 2777
3640 1815
3640 5052
3640 4749
3640 594
5450 2321
5450 1006
5450 3278
5450 4889
5450 5636
5450 752
5450 3826
5450 1593
5450 1635
5450 2552
5450 5417
5450 1364
5450 5279
5450 4377
5450 2773
5450 1859
5450 1682
5450 1233
5450 4912
5450 2777
5450 1815
5450 5052
5450 4749
5450 594
2321 1006
2321 3278
2321 4889
2321 5636
2321 752
2321 3826
2321 1593
2321 1635
2321 2552
2321 5417
2321 1364
2321 5279
2321 4377
2321 2773
2321 1859
2321 1682
2321 1233
2321 4912
2321 2777
2321 1815
2321 5052
2321 4749
2321 594
1006 3278
1006 4889
1006 5636
1006 752
1006 3826
1006 1593
1006 1635
1006 2552
1006 5417
1006 1364
1006 5279
1006 4377
1006 2773
1006 1859
1006 1682
1006 1233
1006 4912
1006 2777
1006 1815
1006 5052
1006 4749
1006 594
3278 4889
3278 5636
3278 752
3278 3826
3278 1593
3278 1635
3278 2552
3278 5417
3278 1364
3278 5279
3278 4377
3278 2773
3278 1859
3278 1682
3278 1233
3278 4912
3278 2777
3278 1815
3278 5052
3278 4749
3278 594
4889 5636
4889 752
4889 3826
4889 1593
4889 1635
4889 2552
4889 5417
4889 1364
4889 5279
4889 4377
4889 2773
4889 1859
4889 1682
4889 1233
4889 4912
4889 2777
4889 1815
4889 5052
4889 4749
4889 594
5636 752
5636 3826
5636 1593
5636 1635
5636 2552
5636 5417
5636 1364
5636 5279
5636 4377
5636 2773
5636 1859
5636 1682
5636 1233
5636 4912
5636 2777
5636 1815
5636 5052
5636 4749
5636 594
752 3826
752 1593
752 1635
752 2552
752 5417
752 1364
752 5279
752 4377
752 2773
752 1859
752 1682
752 1233
752 4912
752 2777
752 1815
752 5052
752 4749
752 594
3826 1593
3826 1635
3826 2552
3826 5417
3826 1364
3826 5279
3826 4377
3826 2773
3826 1859
3826 1682
3826 1233
3826 4912
3826 2777
3826 1815
3826 5052
3826 4749
3826 594
1593 1635
1593 2552
1593 5417
1593 1364
1593 5279
1593 4377
1593 2773
1593 1859
1593 1682
1593 1233
1593 4912
1593 2777
1593 1815
1593 5052
1593 4749
1593 594
1635 2552
1635 5417
1635 1364
1635 5279
1635 4377
1635 2773
1635 1859
1635 1682
1635 1233
1635 4912
1635 2777
1635 1815
1635 5052
1635 4749
1635 594
2552 5417
2552 1364
2552 5279
2552 4377
2552 2773
2552 1859
2552 1682
2552 1233
2552 4912
2552 2777
2552 1815
2552 5052
2552 4749
2552 594
5417 1364
5417 5279
5417 4377
5417 2773
5417 1859
5417 1682
5417 1233
5417 4912
5417 2777
5417 1815
5417 5052
5417 4749
5417 594
1364 5279
1364 4377
1364 2773
1364 1859
1364 1682
1364 1233
1364 4912
1364 2777
1364 1815
1364 5052
1364 4749
1364 594
5279 4377
5279 2773
5279 1859
5279 1682
5279 1233
5279 4912
5279 2777
5279 1815
5279 5052
5279 4749
5279 594
4377 2773
4377 1859
4377 1682
4377 1233
4377 4912
4377 2777
4377 1815
4377 5052
4377 4749
4377 594
2773 1859
2773 1682
2773 1233
2773 4912
2773 2777
2773 1815
2773 5052
2773 4749
2773 594
1859 1682
1859 1233
1859 4912
1859 2777
1859 1815
1859 5052
1859 4749
1859 594
1682 1233
1682 4912
1682 2777
1682 1815
1682 5052
1682 4749
1682 594
1233 4912
1233 2777
1233 1815
1233 5052
1233 4749
1233 594
4912 2777
4912 1815
4912 5052
4912 4749
4912 594
2777 1815
2777 5052
2777 4749
2777 594
1815 5052
1815 4749
1815 594
5052 4749
5052 594
4749 594
956 2159
956 568
956 351
956 52
956 2066
956 5400
956 2753
956 4623
956 3323
956 5231
956 3512
956 3419
956 405
956 1582
956 1348
956 5643
956 2278
956 2081
956 3380
956 1936
956 4675
956 4366
956 2855
956 5414
956 3744
956 2551
956 4681
956 2188
956 4683
956 5047
956 623
956 1368
956 5372
956 5562
956 2198
956 2864
956 3578
956 851
956 5529
956 1039
956 1379
956 633
956 4485
956 1560
956 4516
956 3968
956 4122
956 3971
956 685
956 4223
956 4025
956 3058
956 1433
2159 568
2159 351
2159 52
2159 2066
2159 5400
2159 2753
2159 4623
2159 3323
2159 5231
2159 3512
2159 3419
2159 405
2159 1582
2159 1348
2159 5643
2159 2278
2159 2081
2159 3380
2159 1936
2159 4675
2159 4366
2159 2855
2159 5414
2159 3744
2159 2551
2159 4681
2159 2188
2159 4683
2159 5047
2159 623
2159 1368
2159 5372
2159 5562
2159 2198
2159 2864
2159 3578
2159 851
2159 5529
2159 1039
2159 1379
2159 633
2159 4485
2159 1560
2159 4516
2159 3968
2159 4122
2159 3971
2159 685
2159 4223
2159 4025
2159 3058
2159 1433
568 351
568 52
568 2066
568 5400
568 2753
568 4623
568 3323
568 5231
568 3512
568 3419
568 405
568 1582
568 1348
568 5643
568 2278
568 2081
568 3380
568 1936
568 4675
568 4366
568 2855
568 5414
568 3744
568 2551
568 4681
568 2188
568 4683
568 5047
568 623
568 1368
568 5372
568 5562
568 2198
568 2864
568 3578
568 851
568 5529
568 1039
568 1379
568 633
568 4485
568 1560
568 4516
568 3968
568 4122
568 3971
568 685
568 4223
568 4025
568 3058
568 1433
351 52
351 2066
351 5400
351 2753
351 4623
351 3323
351 5231
351 3512
351 3419
351 405
351 1582
351 1348
351 5643
351 2278
351 2081
351 3380
351 1936
351 4675
351 4366
351 2855
351 5414
351 3744
351 2551
351 4681
351 2188
351 4683
351 5047
351 623
351 1368
351 5372
351 5562
351 2198
351 2864
351 3578
351 851
351 5529
351 1039
351 1379
351 633
351 4485
351 1560
351 4516
351 3968
351 4122
351 3971
351 685
351 4223
351 4025
351 3058
351 1433
52 2066
52 5400
52 2753
52 4623
52 3323
52 5231
52 3512
52 3419
52 405
52 1582
52 1348
52 5643
52 2278
52 2081
52 3380
52 1936
52 4675
52 4366
52 2855
52 5414
52 3744
52 2551
52 4681
52 2188
52 4683
52 5047
52 623
52 1368
52 5372
52 5562
52 2198
52 2864
52 3578
52 851
52 5529
52 1039
52 1379
52 633
52 4485
52 1560
52 4516
52 3968
52 4122
52 3971
52 685
52 4223
52 4025
52 3058
52 1433
2066 5400
2066 2753
2066 4623
2066 3323
2066 5231
2066 3512
2066 3419
2066 405
2066 1582
2066 1348
2066 5643
2066 2278
2066 2081
2066 3380
2066 1936
2066 4675
2066 4366
2066 2855
2066 5414
2066 3744
2066 2551
2066 4681
2066 2188
2066 4683
2066 5047
2066 623
2066 1368
2066 5372
2066 5562
2066 2198
2066 2864
2066 3578
2066 851
2066 5529
2066 1039
2066 1379
2066 633
2066 4485
2066 1560
2066 4516
2066 3968
2066 4122
2066 3971
2066 685
2066 4223
2066 4025
2066 3058
2066 1433
5400 2753
5400 4623
5400 3323
5400 5231
5400 3512
5400 3419
5400 405
5400 1582
5400 1348
5400 5643
5400 2278
5400 2081
5400 3380
5400 1936
5400 4675
5400 4366
5400 2855
5400 5414
5400 3744
5400 2551
5400 4681
5400 2188
5400 4683
5400 5047
5400 623
5400 1368
5400 5372
5400 5562
5400 2198
5400 2864
5400 3578
5400 851
5400 5529
5400 1039
5400 1379
5400 633
5400 4485
5400 1560
5400 4516
5400 3968
5400 4122
5400 3971
5400 685
5400 4223
5400 4025
5400 3058
5400 1433
2753 4623
2753 3323
2753 5231
2753 3512
2753 3419
2753 405
2753 1582
2753 1348
2753 5643
2753 2278
2753 2081
2753 3380
2753 1936
2753 4675
2753 4366
2753 2855
2753 5414
2753 3744
2753 2551
2753 4681
2753 2188
2753 4683
2753 5047
2753 623
2753 1368
2753 5372
2753 5562
2753 2198
2753 2864
2753 3578
2753 851
2753 5529
2753 1039
2753 1379
2753 633
2753 4485
2753 1560
2753 4516
2753 3968
2753 4122
2753 3971
2753 685
2753 4223
2753 4025
2753 3058
2753 1433
4623 3323
4623 5231
4623 3512
4623 3419
4623 405
4623 1582
4623 1348
4623 5643
4623 2278
4623 2081
4623 3380
4623 1936
4623 4675
4623 4366
4623 2855
4623 5414
4623 3744
4623 2551
4623 4681
4623 2188
4623 4683
4623 5047
4623 623
4623 1368
4623 5372
4623 5562
4623 2198
4623 2864
4623 3578
4623 851
4623 5529
4623 1039
4623 1379
4623 633
4623 4485
4623 1560
4623 4516
4623 3968
4623 4122
4623 3971
4623 685
4623 4223
4623 4025
4623 3058
4623 1433
3323 5231
3323 3512
3323 3419
3323 405
3323 1582
3323 1348
3323 5643
3323 2278
3323 2081
3323 3380
3323 1936
3323 4675
3323 4366
3323 2855
3323 5414
3323 3744
3323 2551
3323 4681
3323 2188
3323 4683
3323 5047
3323 623
3323 1368
3323 5372
3323 5562
3323 2198
3323 2864
3323 3578
3323 851
3323 5529
3323 1039
3323 1379
3323 633
3323 4485
3323 1560
3323 4516
3323 3968
3323 4122
3323 3971
3323 685
3323 4223
3323 4025
3323 3058
3323 1433
5231 3512
5231 3419
5231 405
5231 1582
5231 1348
5231 5643
5231 2278
5231 2081
5231 3380
5231 1936
5231 4675
5231 4366
5231 2855
5231 5414
5231 3744
5231 2551
5231 4681
5231 2188
5231 4683
5231 5047
5231 623
5231 1368
5231 5372
5231 5562
5231 2198
5231 2864
5231 3578
5231 851
5231 5529
5231 1039
5231 1379
5231 633
5231 4485
5231 1560
5231 4516
5231 3968
5231 4122
5231 3971
5231 685
5231 4223
5231 4025
5231 3058
5231 1433
3512 3419
3512 405
3512 1582
3512 1348
3512 5643
3512 2278
3512 2081
3512 3380
3512 1936
3512 4675
3512 4366
3512 2855
3512 5414
3512 3744
3512 2551
3512 4681
3512 2188
3512 4683
3512 5047
3512 623
3512 1368
3512 5372
3512 5562
3512 2198
3512 2864
3512 3578
3512 851
3512 5529
3512 1039
3512 1379
3512 633
3512 4485
3512 1560
3512 4516
3512 3968
3512 4122
3512 3971
3512 685
3512 4223
3512 4025
3512 3058
3512 1433
3419 405
3419 1582
3419 1348
3419 5643
3419 2278
3419 2081
3419 3380
3419 1936
3419 4675
3419 4366
3419 2855
3419 5414
3419 3744
3419 2551
3419 4681
3419 2188
3419 4683
3419 5047
3419 623
3419 1368
3419 5372
3419 5562
3419 2198
3419 2864
3419 3578
3419 851
3419 5529
3419 1039
3419 1379
3419 633
3419 4485
3419 1560
3419 4516
3419 3968
3419 4122
3419 3971
3419 685
3419 4223
3419 4025
3419 3058
3419 1433
405 1582
405 1348
405 5643
405 2278
405 2081
405 3380
405 1936
405 4675
405 4366
405 2855
405 5414
405 3744
405 2551
405 4681
405 2188
405 4683
405 5047
405 623
405 1368
405 5372
405 5562
405 2198
405 2864
405 3578
405 851
405 5529
405 1039
405 1379
405 633
405 4485
405 1560
405 4516
405 3968
405 4122
405 3971
405 685
405 4223
405 4025
405 3058
405 1433
1582 1348
1582 5643
1582 2278
1582 2081
1582 3380
1582 1936
1582 4675
1582 4366
1582 2855
1582 5414
1582 3744
1582 2551
1582 4681
1582 2188
1582 4683
1582 5047
1582 623
1582 1368
1582 5372
1582 5562
1582 2198
1582 2864
1582 3578
1582 851
1582 5529
1582 1039
1582 1379
1582 633
1582 4485
1582 1560
1582 4516
1582 3968
1582 4122
1582 3971
1582 685
1582 4223
1582 4025
1582 3058
1582 1433
1348 5643
1348 2278
1348 2081
1348 3380
1348 1936
1348 4675
1348 4366
1348 2855
1348 5414
1348 3744
1348 2551
1348 4681
1348 2188
1348 4683
1348 5047
1348 623
1348 1368
1348 5372
1348 5562
1348 2198
1348 2864
1348 3578
1348 851
1348 5529
1348 1039
1348 1379
1348 633
1348 4485
1348 1560
1348 4516
1348 3968
1348 4122
1348 3971
1348 685
1348 4223
1348 4025
1348 3058
1348 1433
5643 2278
5643 2081
5643 3380
5643 1936
5643 4675
5643 4366
5643 2855
5643 5414
5643 3744
5643 2551
5643 4681
5643 2188
5643 4683
5643 5047
5643 623
5643 1368
5643 5372
5643 5562
5643 2198
5643 2864
5643 3578
5643 851
5643 5529
5643 1039
5643 1379
5643 633
5643 4485
5643 1560
5643 4516
5643 3968
5643 4122
5643 3971
5643 685
5643 4223
5643 4025
5643 3058
5643 1433
2278 2081
2278 3380
2278 1936
2278 4675
2278 4366
2278 2855
2278 5414
2278 3744
2278 2551
2278 4681
2278 2188
2278 4683
2278 5047
2278 623
2278 1368
2278 5372
2278 5562
2278 2198
2278 2864
2278 3578
2278 851
2278 5529
2278 1039
2278 1379
2278 633
2278 4485
2278 1560
2278 4516
2278 3968
2278 4122
2278 3971
2278 685
2278 4223
2278 4025
2278 3058
2278 1433
2081 3380
2081 1936
2081 4675
2081 4366
2081 2855
2081 5414
2081 3744
2081 2551
2081 4681
2081 2188
2081 4683
2081 5047
2081 623
2081 1368
2081 5372
2081 5562
2081 2198
2081 2864
2081 3578
2081 851
2081 5529
2081 1039
2081 1379
2081 633
2081 4485
2081 1560
2081 4516
2081 3968
2081 4122
2081 3971
2081 685
2081 4223
2081 4025
2081 3058
2081 1433
3380 1936
3380 4675
3380 4366
3380 2855
3380 5414
3380 3744
3380 2551
3380 4681
3380 2188
3380 4683
3380 5047
3380 623
3380 1368
3380 5372
3380 5562
3380 2198
3380 2864
3380 3578
3380 851
3380 5529
3380 1039
3380 1379
3380 633
3380 4485
3380 1560
3380 4516
3380 3968
3380 4122
3380 3971
3380 685
3380 4223
3380 4025
3380 3058
3380 1433
1936 4675
1936 4366
1936 2855
1936 5414
1936 3744
1936 2551
1936 4681
1936 2188
1936 4683
1936 5047
1936 623
1936 1368
1936 5372
1936 5562
1936 2198
1936 2864
1936 3578
1936 851
1936 5529
1936 1039
1936 1379
1936 633
1936 4485
1936 1560
1936 4516
1936 3968
1936 4122
1936 3971
1936 685
1936 4223
1936 4025
1936 3058
1936 1433
4675 4366
4675 2855
4675 5414
4675 3744
4675 2551
4675 4681
4675 2188
4675 4683
4675 5047
4675 623
4675 1368
4675 5372
4675 5562
4675 2198
4675 2864
4675 3578
4675 851
4675 5529
4675 1039
4675 1379
4675 633
4675 4485
4675 1560
4675 4516
4675 3968
4675 4122
4675 3971
4675 685
4675 4223
4675 4025
4675 3058
4675 1433
4366 2855
4366 5414
4366 3744
4366 2551
4366 4681
4366 2188
4366 4683
4366 5047
4366 623
4366 1368
4366 5372
4366 5562
4366 2198
4366 2864
4366 3578
4366 851
4366 5529
4366 1039
4366 1379
4366 633
4366 4485
4366 1560
4366 4516
4366 3968
4366 4122
4366 3971
4366 685
4366 4223
4366 4025
4366 3058
4366 1433
2855 5414
2855 3744
2855 2551
2855 4681
2855 2188
2855 4683
2855 5047
2855 623
2855 1368
2855 5372
2855 5562
2855 2198
2855 2864
2855 3578
2855 851
2855 5529
2855 1039
2855 1379
2855 633
2855 4485
2855 1560
2855 4516
2855 3968
2855 4122
2855 3971
2855 685
2855 4223
2855 4025
2855 3058
2855 1433
5414 3744
5414 2551
5414 4681
5414 2188
5414 4683
5414 5047
5414 623
5414 1368
5414 5372
5414 5562
5414 2198
5414 2864
5414 3578
5414 851
5414 5529
5414 1039
5414 1379
5414 633
5414 4485
5414 1560
5414 4516
5414 3968
5414 4122
5414 3971
5414 685
5414 4223
5414 4025
5414 3058
5414 1433
3744 2551
3744 4681
3744 2188
3744 4683
3744 5047
3744 623
3744 1368
3744 5372
3744 5562
3744 2198
3744 2864
3744 3578
3744 851
3744 5529
3744 1039
3744 1379
3744 633
3744 4485
3744 1560
3744 4516
3744 3968
3744 4122
3744 3971
3744 685
3744 4223
3744 4025
3744 3058
3744 1433
2551 4681
2551 2188
2551 4683
2551 5047
2551 623
2551 1368
2551 5372
2551 5562
2551 2198
2551 2864
2551 3578
2551 851
2551 5529
2551 1039
2551 1379
2551 633
2551 4485
2551 1560
2551 4516
2551 3968
2551 4122
2551 3971
2551 685
2551 4223
2551 4025
2551 3058
2551 1433
4681 2188
4681 4683
4681 5047
4681 623
4681 1368
4681 5372
4681 5562
4681 2198
4681 2864
4681 3578
4681 851
4681 5529
4681 1039
4681 1379
4681 633
4681 4485
4681 1560
4681 4516
4681 3968
4681 4122
4681 3971
4681 685
4681 4223
4681 4025
4681 3058
4681 1433
2188 4683
2188 5047
2188 623
2188 1368
2188 5372
2188 5562
2188 2198
2188 2864
2188 3578
2188 851
2188 5529
2188 1039
2188 1379
2188 633
2188 4485
2188 1560
2188 4516
2188 3968
2188 4122
2188 3971
2188 685
2188 4223
2188 4025
2188 3058
2188 1433
4683 5047
4683 623
4683 1368
4683 5372
4683 5562
4683 2198
4683 2864
4683 3578
4683 851
4683 5529
4683 1039
4683 1379
4683 633
4683 4485
4683 1560
4683 4516
4683 3968
4683 4122
4683 3971
4683 685
4683 4223
4683 4025
4683 3058
4683 1433
5047 623
5047 1368
5047 5372
5047 5562
5047 2198
5047 2864
5047 3578
5047 851
5047 5529
5047 1039
5047 1379
5047 633
5047 4485
5047 1560
5047 4516
5047 3968
5047 4122
5047 3971
5047 685
5047 4223
5047 4025
5047 3058
5047 1433
623 1368
623 5372
623 5562
623 2198
623 2864
623 3578
623 851
623 5529
623 1039
623 1379
623 633
623 4485
623 1560
623 4516
623 3968
623 4122
623 3971
623 685
623 4223
623 4025
623 3058
623 1433
1368 5372
1368 5562
1368 2198
1368 2864
1368 3578
1368 851
1368 5529
1368 1039
1368 1379
1368 633
1368 4485
1368 1560
1368 4516
1368 3968
1368 4122
1368 3971
1368 685
1368 4223
1368 4025
1368 3058
1368 1433
5372 5562
5372 2198
5372 2864
5372 3578
5372 851
5372 5529
5372 1039
5372 1379
5372 633
5372 4485
5372 1560
5372 4516
5372 3968
5372 4122
5372 3971
5372 685
5372 4223
5372 4025
5372 3058
5372 1433
5562 2198
5562 2864
5562 3578
5562 851
5562 5529
5562 1039
5562 1379
5562 633
5562 4485
5562 1560
5562 4516
5562 3968
5562 4122
5562 3971
5562 685
5562 4223
5562 4025
5562 3058
5562 1433
2198 2864
2198 3578
2198 851
2198 5529
2198 1039
2198 1379
2198 633
2198 4485
2198 1560
2198 4516
2198 3968
2198 4122
2198 3971
2198 685
2198 4223
2198 4025
2198 3058
2198 1433
2864 3578
2864 851
2864 5529
2864 1039
2864 1379
2864 633
2864 4485
2864 1560
2864 4516
2864 3968
2864 4122
2864 3971
2864 685
2864 4223
2864 4025
2864 3058
2864 1433
3578 851
3578 5529
3578 1039
3578 1379
3578 633
3578 4485
3578 1560
3578 4516
3578 3968
3578 4122
3578 3971
3578 685
3578 4223
3578 4025
3578 3058
3578 1433
851 5529
851 1039
851 1379
851 633
851 4485
851 1560
851 4516
851 3968
851 4122
851 3971
851 685
851 4223
851 4025
851 3058
851 1433
5529 1039
5529 1379
5529 633
5529 4485
5529 1560
5529 4516
5529 3968
5529 4122
5529 3971
5529 685
5529 4223
5529 4025
5529 3058
5529 1433
1039 1379
1039 633
1039 4485
1039 1560
1039 4516
1039 3968
1039 4122
1039 3971
1039 685
1039 4223
1039 4025
1039 3058
1039 1433
1379 633
1379 4485
1379 1560
1379 4516
1379 3968
1379 4122
1379 3971
1379 685
1379 4223
1379 4025
1379 3058
1379 1433
633 4485
633 1560
633 4516
633 3968
633 4122
633 3971
633 685
633 4223
633 4025
633 3058
633 1433
4485 1560
4485 4516
4485 3968
4485 4122
4485 3971
4485 685
4485 4223
4485 4025
4485 3058
4485 1433
1560 4516
1560 3968
1560 4122
1560 3971
1560 685
1560 4223
1560 4025
1560 3058
1560 1433
4516 3968
4516 4122
4516 3971
4516 685
4516 4223
4516 4025
4516 3058
4516 1433
3968 4122
3968 3971
3968 685
3968 4223
3968 4025
3968 3058
3968 1433
4122 3971
4122 685
4122 4223
4122 4025
4122 3058
4122 1433
3971 685
3971 4223
3971 4025
3971 3058
3971 1433
685 4223
685 4025
685 3058
685 1433
4223 4025
4223 3058
4223 1433
4025 3058
4025 1433
3058 1433
3470 3366
3470 2283
3366 2283
437 765
4367 2506
4367 3231
4367 665
4367 645
4367 5501
2506 3231
2506 645
2506 4398
3231 665
3231 4398
3231 5501
943 2387
943 2288
943 1547
2387 2288
2387 2844
2288 1547
2288 2844
2288 4322
2288 3792
1547 2844
675 2099
675 4099
2099 4099
3015 1393
3015 2950
3015 5487
1393 2950
1393 5487
2950 5487
609 3159
3235 1465
3235 3805
3235 5444
3235 5602
3235 3411
3235 3945
3235 4330
3235 2660
3235 3144
3235 4214
3235 3441
3235 4572
3235 663
3235 1042
3235 826
3235 1366
3235 5491
1465 3805
1465 5444
1465 5602
1465 3411
1465 3945
1465 4330
1465 2660
1465 3144
1465 4214
1465 3441
1465 4572
1465 663
1465 1042
1465 826
3805 5444
3805 5602
3805 3411
3805 3945
3805 4330
3805 2660
3805 3144
3805 4214
3805 3441
3805 4572
3805 663
3805 1042
3805 826
5444 5602
5444 3411
5444 3945
5444 4330
5444 2660
5444 3144
5444 4214
5444 3441
5444 4572
5444 663
5444 1042
5444 826
5602 3411
5602 3945
5602 4330
5602 2660
5602 3144
5602 4214
5602 3441
5602 4572
5602 663
5602 1042
5602 826
5602 1366
5602 5491
3411 3945
3411 4330
3411 2660
3411 3144
3411 4214
3411 3441
3411 4572
3411 663
3411 1042
3411 826
3945 4330
3945 2660
3945 3144
3945 4214
3945 3441
3945 4572
3945 663
3945 1042
3945 826
4330 2660
4330 3144
4330 4214
4330 3441
4330 4572
4330 663
4330 1042
4330 826
2660 3144
2660 4214
2660 3441
2660 4572
2660 663
2660 1042
2660 826
3144 4214
3144 3441
3144 4572
3144 663
3144 1042
3144 826
4214 3441
4214 4572
4214 663
4214 1042
4214 826
3441 4572
3441 663
3441 1042
3441 826
4572 663
4572 1042
4572 826
663 1042
663 826
1042 826
2865 4927
2865 5032
2865 2404
2865 4867
2865 4831
2865 4375
2865 2010
2865 5283
2865 5480
2865 1344
2865 3279
2865 801
4927 5032
4927 2404
4927 4867
4927 4375
4927 3279
4927 801
5032 2404
5032 4867
5032 4831
5032 4375
5032 2010
5032 5283
5032 801
4052 1756
2455 1341
53 2343
4629 2485
3625 1295
4831 4375
4375 2010
4375 5283
4375 5480
4375 1344
4375 3279
3266 753
3266 780
3266 1714
3266 3722
3266 5137
3266 2513
3266 4995
3266 508
3266 4244
753 780
753 1714
753 3722
753 5137
780 1714
780 3722
780 5137
1714 3722
1714 5137
3722 5137
5137 2513
5137 4995
5137 508
5137 4244
1983 2559
2559 1427
2559 3228
2559 1166
2559 0
2559 4069
2559 3148
2559 3618
2559 3914
2559 486
2559 3161
2559 2148
2148 38
2148 2425
2148 1986
2148 2593
38 1420
38 1427
535 3389
4084 3293
665 645
665 4398
645 4398
645 5501
4398 5501
4513 4526
4513 3612
4513 3102
4513 855
4513 3641
4513 2962
4513 1747
4513 1487
4513 832
4513 5079
4513 2225
4513 4584
4513 199
4513 5492
4513 5644
4513 1219
4513 3559
4513 1309
4513 3285
4513 4285
4513 2180
4513 805
4513 67
4513 4290
4513 3334
4513 4369
4513 4194
4513 462
4513 2859
4513 1943
4513 3158
4513 769
4513 1855
4513 1684
4513 2816
4513 1110
4513 1035
4513 1515
4513 3754
4513 1286
4513 987
4513 555
4513 722
4513 856
4513 1783
4513 1207
4513 312
4513 5352
4513 2807
4513 808
4513 1279
4513 4380
4513 3537
4513 389
4513 4654
4513 1837
4513 5270
4513 925
4513 3817
4513 916
4513 5500
4513 1720
4513 1689
4513 1023
4513 511
4526 3612
4526 3102
4526 855
4526 3641
4526 2962
4526 4938
4526 1487
4526 832
4526 5079
4526 2225
4526 199
4526 5492
4526 5644
4526 1219
4526 3559
4526 1309
4526 3285
4526 4285
4526 2180
4526 805
4526 67
4526 4290
4526 3334
4526 4369
4526 462
4526 2859
4526 1943
4526 3158
4526 1855
4526 1684
4526 2816
4526 1110
4526 1515
4526 3754
4526 555
4526 722
4526 856
4526 3927
4526 1783
4526 2567
4526 1207
4526 1747
4526 4098
4526 4194
4526 1035
4526 4584
4526 769
4526 987
4526 1286
4526 312
4526 5352
4526 2807
4526 808
4526 1279
4526 4380
4526 3537
4526 389
4526 4654
4526 1837
4526 5270
4526 925
4526 3817
4526 916
4526 5500
4526 1720
4526 1689
4526 1023
4526 511
3612 3102
3612 855
3612 3641
3612 2962
3102 855
3102 3641
3102 2962
3102 1747
3102 1487
3102 832
3102 5079
3102 2225
3102 4584
3102 199
3102 5492
3102 5644
3102 1219
3102 3559
3102 1309
3102 3285
3102 4285
3102 2180
3102 805
3102 67
3102 4290
3102 3334
3102 4369
3102 4194
3102 462
3102 2859
3102 1943
3102 3158
3102 769
3102 1855
3102 1684
3102 2816
3102 1110
3102 1035
3102 1515
3102 3754
3102 1286
3102 987
3102 555
3102 722
3102 856
3102 1783
3102 1207
3102 312
3102 5352
3102 2807
3102 808
3102 1279
3102 4380
3102 3537
3102 389
3102 4654
3102 1837
3102 5270
3102 925
3102 3817
3102 916
3102 5500
3102 1720
3102 1689
3102 1023
3102 511
855 3641
855 2962
855 4938
855 1487
855 832
855 5079
855 2225
855 199
855 5492
855 5644
855 1219
855 3559
855 1309
855 3285
855 4285
855 2180
855 805
855 67
855 4290
855 3334
855 4369
855 462
855 2859
855 1943
855 3158
855 1855
855 1684
855 2816
855 1110
855 1515
855 3754
855 555
855 722
855 856
855 3927
855 1783
855 2567
855 1207
855 1747
855 4098
855 4194
855 1035
855 4584
855 769
855 987
855 1286
855 312
855 5352
855 2807
855 808
855 1279
855 4380
855 3537
855 389
855 4654
855 1837
855 5270
855 925
855 3817
855 916
855 5500
855 1720
855 1689
855 1023
855 511
3641 2962
3641 4938
3641 1487
3641 832
3641 5079
3641 2225
3641 199
3641 5492
3641 5644
3641 1219
3641 3559
3641 1309
3641 3285
3641 4285
3641 2180
3641 805
3641 67
3641 4290
3641 3334
3641 4369
3641 462
3641 2859
3641 1943
3641 3158
3641 1855
3641 1684
3641 2816
3641 1110
3641 1515
3641 3754
3641 555
3641 722
3641 856
3641 3927
3641 1783
3641 2567
3641 1207
3641 1747
3641 4098
3641 4194
3641 1035
3641 4584
3641 769
3641 987
3641 1286
3641 312
3641 5352
3641 2807
3641 808
3641 1279
3641 4380
3641 3537
3641 389
3641 4654
3641 1837
3641 5270
3641 925
3641 3817
3641 916
3641 5500
3641 1720
3641 1689
3641 1023
3641 511
4110 316
4110 4112
4110 1831
4110 5295
4110 4308
4110 1021
316 4112
316 1831
316 5295
316 4308
316 1021
4112 1021
4112 4308
4112 1831
1021 4308
1021 1831
1021 5295
4308 1831
4308 5295
2126 2563
2126 3720
2126 5094
2126 5625
2126 2319
2126 5439
2126 5181
2126 144
2126 3240
2563 3720
2563 5094
2563 5625
2563 2319
2563 5439
2563 5181
2563 144
2563 3240
3720 5094
3720 5625
3720 2319
3720 5439
3720 5181
3720 144
3720 3240
5094 5625
5094 2319
5094 5439
5094 5181
5094 144
5094 3240
5625 2319
5625 5439
5625 5181
5625 144
5625 3240
2319 5439
2319 5181
2319 144
2319 3240
5439 5181
5439 144
5439 3240
5181 144
144 3240
2648 5071
2648 6
2648 2368
2648 3208
2648 1404
2648 1944
2648 180
2648 706
2648 2835
2648 3455
2648 1804
2648 1451
2648 3012
2648 2732
2648 2241
2648 3276
2648 4437
5071 6
5071 2368
5071 3208
5071 1404
5071 1451
5071 3012
5071 2732
5071 2241
5071 3276
5071 4437
6 2368
6 3208
6 1404
6 1944
6 180
6 706
6 2835
6 3455
6 1804
6 1451
6 3012
6 2732
6 2241
6 3276
6 4437
2368 3208
2368 1404
2368 1944
2368 180
2368 706
2368 2835
2368 3455
2368 1804
2368 1451
2368 3012
2368 2732
2368 2241
2368 3276
2368 4437
4780 1890
4780 2918
4780 954
0 4206
4069 4983
4206 1778
2528 358
2528 130
2528 3885
2528 1223
4954 2345
4954 260
4954 2570
4954 2902
4954 4860
2345 260
2345 2570
2345 4860
260 2570
260 2902
260 4860
2570 2902
2570 4860
4147 5128
4147 3585
4147 3133
5128 3294
5128 1717
3585 3294
3585 1717
3294 3133
1717 3133
196 3263
3263 4304
3420 5550
3420 1502
3420 2924
3420 5153
5550 1502
5550 2924
5550 5153
5550 3260
5550 1956
5550 396
5550 3483
1502 2924
2924 5153
2924 3260
2924 1956
5124 344
5124 1872
5124 5184
5124 2209
5124 4589
5124 1123
5124 5267
5124 3825
344 1872
344 5184
344 2209
344 4589
344 1123
344 5267
344 3825
1872 5184
1872 2209
1872 4589
1872 1123
1872 5267
1872 3825
5184 2209
5184 4589
5184 1123
5184 5267
5184 3825
2209 4589
2209 1123
2209 5267
4589 1123
4589 5267
4589 3825
1123 5267
1123 3825
5267 3825
3774 5132
3774 2443
3774 3138
3774 5085
3774 748
3774 10
3774 1008
3774 1927
3774 1020
3774 2644
3774 327
3774 4554
3774 2468
3774 887
3774 1365
3774 290
3774 982
3774 1726
3774 5326
3774 2344
3774 5327
3774 2346
3774 4113
3774 947
3774 4648
3774 347
3774 5293
3774 4017
3774 3848
3774 646
3774 3850
3774 5066
3774 831
3774 2089
3774 1984
5132 2443
5132 3138
5132 5085
5132 748
5132 10
5132 1008
5132 1927
5132 1020
5132 2644
5132 327
5132 4554
5132 2468
5132 887
5132 1365
5132 290
5132 982
5132 1726
5132 5326
5132 2344
5132 5327
5132 2346
5132 4113
5132 947
5132 4648
5132 347
5132 5293
5132 4017
5132 3848
5132 646
5132 3850
5132 5066
5132 831
5132 2089
5132 1984
2443 3138
2443 5085
2443 748
2443 10
2443 1008
2443 1927
2443 1020
2443 2644
2443 327
2443 4554
2443 2468
2443 887
2443 1365
2443 290
2443 982
2443 1726
2443 5326
2443 2344
2443 5327
2443 2346
2443 4113
2443 947
2443 4648
2443 347
2443 5293
2443 4017
2443 3848
2443 646
2443 3850
2443 5066
2443 552
2443 2089
2443 831
2443 1984
2443 2106
2443 1145
2443 3679
2443 4155
2443 4227
3138 5085
3138 748
3138 10
3138 1008
3138 1927
3138 1020
3138 2644
3138 327
3138 4554
3138 2468
3138 887
3138 1365
3138 290
3138 982
3138 1726
3138 5326
3138 2344
3138 5327
3138 2346
3138 4113
3138 947
3138 4648
3138 347
3138 5293
3138 4017
3138 3848
3138 646
3138 3850
3138 5066
3138 831
3138 2089
3138 1984
5085 748
5085 10
5085 1008
5085 1927
5085 1020
5085 2644
5085 327
5085 4554
5085 2468
5085 887
5085 1365
5085 290
5085 982
5085 1726
5085 5326
5085 2344
5085 5327
5085 2346
5085 4113
5085 947
5085 4648
5085 347
5085 5293
5085 4017
5085 3848
5085 646
5085 3850
5085 5066
5085 831
5085 2089
5085 1984
748 10
748 1008
748 1927
748 1020
748 2644
748 327
748 4554
748 2468
748 887
748 1365
748 290
748 982
748 1726
748 5326
748 2344
748 5327
748 2346
748 4113
748 947
748 4648
748 347
748 5293
748 4017
748 3848
748 646
748 3850
748 5066
748 831
748 2089
748 1984
10 1008
10 1927
10 1020
10 2644
10 327
10 4554
10 2468
10 887
10 1365
10 290
10 982
10 1726
10 5326
10 2344
10 5327
10 2346
10 4113
10 947
10 4648
10 347
10 5293
10 4017
10 3848
10 646
10 3850
10 5066
10 831
10 2089
10 1984
1008 1927
1008 1020
1008 2644
1008 327
1008 4554
1008 2468
1008 887
1008 1365
1008 290
1008 982
1008 1726
1008 5326
1008 2344
1008 5327
1008 2346
1008 4113
1008 947
1008 4648
1008 347
1008 5293
1008 4017
1008 3848
1008 646
1008 3850
1008 5066
1008 831
1008 2089
1008 1984
1927 1020
1927 2644
1927 327
1927 4554
1927 2468
1927 887
1927 1365
1927 290
1927 982
1927 1726
1927 5326
1927 2344
1927 5327
1927 2346
1927 4113
1927 947
1927 4648
1927 347
1927 5293
1927 4017
1927 3848
1927 646
1927 3850
1927 5066
1927 552
1927 2089
1927 831
1927 1984
1927 2106
1927 1145
1927 3679
1927 4155
1927 4227
1020 2644
1020 327
1020 4554
1020 2468
1020 887
1020 1365
1020 290
1020 982
1020 1726
1020 5326
1020 2344
1020 5327
1020 2346
1020 4113
1020 947
1020 4648
1020 347
1020 5293
1020 4017
1020 3848
1020 646
1020 3850
1020 5066
1020 552
1020 2089
1020 831
1020 1984
1020 2106
1020 1145
1020 3679
1020 4155
1020 4227
2644 327
2644 4554
2644 2468
2644 887
2644 1365
2644 290
2644 982
2644 1726
2644 5326
2644 2344
2644 5327
2644 2346
2644 4113
2644 947
2644 4648
2644 347
2644 5293
2644 4017
2644 3848
2644 646
2644 3850
2644 5066
2644 831
2644 2089
2644 1984
327 4554
327 2468
327 887
327 1365
327 290
327 982
327 1726
327 5326
327 2344
327 5327
327 2346
327 4113
327 947
327 4648
327 347
327 5293
327 4017
327 3848
327 646
327 3850
327 5066
327 552
327 2089
327 831
327 1984
327 2106
327 1145
327 3679
327 4155
327 4227
4554 2468
4554 887
4554 1365
4554 290
4554 982
4554 1726
4554 5326
4554 2344
4554 5327
4554 2346
4554 4113
4554 947
4554 4648
4554 347
4554 5293
4554 4017
4554 3848
4554 646
4554 3850
4554 5066
4554 831
4554 2089
4554 1984
2468 887
2468 1365
2468 290
2468 982
2468 1726
2468 5326
2468 2344
2468 5327
2468 2346
2468 4113
2468 947
2468 4648
2468 347
2468 5293
2468 4017
2468 3848
2468 646
2468 3850
2468 5066
2468 831
2468 2089
2468 1984
887 1365
887 290
887 982
887 1726
887 5326
887 2344
887 5327
887 2346
887 4113
887 947
887 4648
887 347
887 5293
887 4017
887 3848
887 646
887 3850
887 5066
887 552
887 2089
887 831
887 1984
887 2106
887 1145
887 3679
887 4155
887 4227
1365 290
1365 982
1365 1726
1365 5326
1365 2344
1365 5327
1365 2346
1365 4113
1365 947
1365 4648
1365 347
1365 5293
1365 4017
1365 3848
1365 646
1365 3850
1365 5066
1365 831
1365 2089
1365 1984
290 982
290 1726
290 5326
290 2344
290 5327
290 2346
290 4113
290 947
290 4648
290 347
290 5293
290 4017
290 3848
290 646
290 3850
290 5066
290 552
290 2089
290 831
290 1984
290 4227
982 1726
982 5326
982 2344
982 5327
982 2346
982 4113
982 947
982 4648
982 347
982 5293
982 4017
982 3848
982 646
982 3850
982 5066
982 552
982 2089
982 831
982 1984
982 2106
982 1145
982 3679
982 4155
982 4227
1726 5326
1726 2344
1726 5327
1726 2346
1726 4113
1726 947
1726 4648
1726 347
1726 5293
1726 4017
1726 3848
1726 646
1726 3850
1726 5066
1726 552
1726 2089
1726 831
1726 1984
1726 2106
1726 1145
1726 3679
1726 4155
1726 4227
5326 2344
5326 5327
5326 2346
5326 4113
5326 947
5326 4648
5326 347
5326 5293
5326 4017
5326 3848
5326 646
5326 3850
5326 5066
5326 552
5326 2089
5326 831
5326 1984
5326 2106
5326 1145
5326 3679
5326 4155
5326 4227
2344 5327
2344 2346
2344 4113
2344 947
2344 4648
2344 347
2344 5293
2344 4017
2344 3848
2344 646
2344 3850
2344 5066
2344 552
2344 2089
2344 831
2344 1984
2344 4227
5327 2346
5327 4113
5327 947
5327 4648
5327 347
5327 5293
5327 4017
5327 3848
5327 646
5327 3850
5327 5066
5327 831
5327 2089
5327 1984
2346 4113
2346 947
2346 4648
2346 347
2346 5293
2346 4017
2346 3848
2346 646
2346 3850
2346 5066
2346 831
2346 2089
2346 1984
4113 947
4113 4648
4113 347
4113 5293
4113 4017
4113 3848
4113 646
4113 3850
4113 5066
4113 831
4113 2089
4113 1984
947 4648
947 347
947 5293
947 4017
947 3848
947 646
947 3850
947 5066
947 831
947 2089
947 1984
4648 347
4648 5293
4648 4017
4648 3848
4648 646
4648 3850
4648 5066
4648 831
4648 2089
4648 1984
347 5293
347 4017
347 3848
347 646
347 3850
347 5066
347 831
347 2089
347 1984
5293 4017
5293 3848
5293 646
5293 3850
5293 5066
5293 552
5293 2089
5293 831
5293 1984
5293 2106
5293 1145
5293 3679
5293 4155
4017 3848
4017 646
4017 3850
4017 5066
4017 552
4017 2089
4017 831
4017 1984
4017 4227
3848 646
3848 3850
3848 5066
3848 5462
3848 4550
3848 2886
3848 831
3848 2089
3848 1984
3848 474
646 3850
646 5066
646 552
646 2089
646 831
646 1984
646 2106
646 1145
646 3679
646 4155
646 4227
3850 5066
3850 552
3850 2089
3850 831
3850 1984
3850 2106
3850 1145
3850 3679
3850 4155
3850 4227
5066 831
5066 2089
5066 1984
449 5580
449 3122
449 384
449 99
5580 3122
5580 5253
2336 869
2336 2296
2336 5135
2336 301
869 2296
2520 1969
2520 4281
2520 1690
2520 962
2520 1105
2520 4939
1969 4281
1969 4821
3237 4176
3237 3462
3237 454
3237 2112
3237 3054
3237 798
3237 3609
4176 3462
4176 454
4176 2112
4176 3054
4176 798
4176 3609
3462 454
3462 2112
3462 3054
3462 798
3462 3609
454 2112
454 3054
454 798
454 3609
2112 3054
2112 798
2112 3609
3054 798
3054 3609
798 3609
3244 4712
3244 4936
3244 2354
3244 1531
3244 1852
3244 5276
3244 687
3244 3963
4712 4936
4712 2354
4712 1531
4712 1852
4712 5276
4712 687
4712 3963
4936 2354
4936 1531
4936 1852
4936 5276
4936 687
4936 3963
2354 1531
2354 1852
2354 5276
2354 687
2354 3963
1531 1852
1531 5276
1531 687
1531 3963
1852 5276
1852 687
1852 3963
5276 687
5276 3963
687 3963
2859 555
2859 3559
2859 1219
2859 1309
2859 805
2859 67
2859 4893
2859 1209
2859 2617
2859 1431
2859 4001
2859 4144
2859 5492
2859 4032
2859 1855
2859 3285
2859 1783
2859 2180
2859 1170
2859 5139
2859 1085
2859 2228
2859 2722
2859 4285
2859 4998
2859 5560
2859 672
2859 1118
2859 4013
2859 900
2859 949
2859 2783
2859 1876
2859 832
2859 5079
2859 2225
2859 967
2859 199
2859 4679
2859 3334
2859 1141
2859 1943
2859 3158
2859 4108
2859 1684
2859 1110
2859 3754
2859 856
2859 3927
2859 1207
2859 4938
2859 1487
2859 5644
2859 4290
2859 4369
2859 462
2859 2816
2859 1515
2859 722
2859 2567
2859 1747
2859 4098
2859 4194
2859 1035
2859 4584
2859 769
2859 987
2859 1286
2859 312
2859 5352
2859 2807
2859 808
2859 1279
2859 4380
2859 3537
2859 389
2859 4654
2859 1837
2859 5270
2859 925
2859 3817
2859 916
2859 5500
2859 1720
2859 1689
2859 1023
2859 511
2859 1469
2859 2993
2859 3364
2859 1916
2859 5345
555 3559
555 1219
555 1309
555 805
555 67
555 4893
555 1209
555 2617
555 1431
555 4001
555 4144
555 5492
555 4032
555 1855
555 3285
555 1783
555 2180
555 1170
555 5139
555 1085
555 2228
555 2722
555 4285
555 4998
555 5560
555 672
555 1118
555 4013
555 900
555 949
555 2783
555 1876
555 832
555 5079
555 2225
555 967
555 199
555 4679
555 3334
555 1141
555 1943
555 3158
555 4108
555 1684
555 1110
555 3754
555 856
555 3927
555 1207
555 4938
555 1487
555 5644
555 4290
555 4369
555 462
555 2816
555 1515
555 722
555 2567
555 1747
555 4098
555 4194
555 1035
555 4584
555 769
555 987
555 1286
555 312
555 5352
555 2807
555 808
555 1279
555 4380
555 3537
555 389
555 4654
555 1837
555 5270
555 925
555 3817
555 916
555 5500
555 1720
555 1689
555 1023
555 511
555 1469
555 2993
3559 1219
3559 1309
3559 805
3559 67
3559 4893
3559 1209
3559 2617
3559 1431
3559 4001
3559 4144
3559 5492
3559 4032
3559 1855
3559 3285
3559 1783
3559 2180
3559 1170
3559 5139
3559 1085
3559 2228
3559 2722
3559 4285
3559 4998
3559 5560
3559 672
3559 1118
3559 4013
3559 900
3559 949
3559 2783
3559 1876
3559 832
3559 5079
3559 2225
3559 967
3559 199
3559 4679
3559 3334
3559 1141
3559 1943
3559 3158
3559 4108
3559 1684
3559 1110
3559 3754
3559 856
3559 3927
3559 1207
3559 4938
3559 1487
3559 5644
3559 4290
3559 4369
3559 462
3559 2816
3559 1515
3559 722
3559 2567
3559 1747
3559 4098
3559 4194
3559 1035
3559 4584
3559 769
3559 987
3559 1286
3559 312
3559 5352
3559 2807
3559 808
3559 1279
3559 4380
3559 3537
3559 389
3559 4654
3559 1837
3559 5270
3559 925
3559 3817
3559 916
3559 5500
3559 1720
3559 1689
3559 1023
3559 511
3559 1469
3559 2993
1219 1309
1219 805
1219 67
1219 4893
1219 1209
1219 2617
1219 1431
1219 4001
1219 4144
1219 5492
1219 4032
1219 1855
1219 3285
1219 1783
1219 2180
1219 1170
1219 5139
1219 1085
1219 2228
1219 2722
1219 4285
1219 4998
1219 5560
1219 672
1219 1118
1219 4013
1219 900
1219 949
1219 2783
1219 1876
1219 832
1219 5079
1219 2225
1219 967
1219 199
1219 4679
1219 3334
1219 1141
1219 1943
1219 3158
1219 4108
1219 1684
1219 1110
1219 3754
1219 856
1219 3927
1219 1207
1219 4938
1219 1487
1219 5644
1219 4290
1219 4369
1219 462
1219 2816
1219 1515
1219 722
1219 2567
1219 1747
1219 4098
1219 4194
1219 1035
1219 4584
1219 769
1219 987
1219 1286
1219 312
1219 5352
1219 2807
1219 808
1219 1279
1219 4380
1219 3537
1219 389
1219 4654
1219 1837
1219 5270
1219 925
1219 3817
1219 916
1219 5500
1219 1720
1219 1689
1219 1023
1219 511
1219 1469
1219 2993
1219 3364
1219 1916
1219 5345
1309 805
1309 67
1309 4893
1309 1209
1309 2617
1309 1431
1309 4001
1309 4144
1309 5492
1309 4032
1309 1855
1309 3285
1309 1783
1309 2180
1309 1170
1309 5139
1309 1085
1309 2228
1309 2722
1309 4285
1309 4998
1309 5560
1309 672
1309 1118
1309 4013
1309 900
1309 949
1309 2783
1309 1876
1309 832
1309 5079
1309 2225
1309 967
1309 199
1309 4679
1309 3334
1309 1141
1309 1943
1309 3158
1309 4108
1309 1684
1309 1110
1309 3754
1309 856
1309 3927
1309 1207
1309 4938
1309 1487
1309 5644
1309 4290
1309 4369
1309 462
1309 2816
1309 1515
1309 722
1309 2567
1309 1747
1309 4098
1309 4194
1309 1035
1309 4584
1309 769
1309 987
1309 1286
1309 312
1309 5352
1309 2807
1309 808
1309 1279
1309 4380
1309 3537
1309 389
1309 4654
1309 1837
1309 5270
1309 925
1309 3817
1309 916
1309 5500
1309 1720
1309 1689
1309 1023
1309 511
1309 1469
1309 2993
1309 3364
1309 1916
1309 5345
805 67
805 4893
805 1209
805 2617
805 1431
805 4001
805 4144
805 5492
805 4032
805 1855
805 3285
805 1783
805 2180
805 1170
805 5139
805 1085
805 2228
805 2722
805 4285
805 4998
805 5560
805 672
805 1118
805 4013
805 900
805 949
805 2783
805 1876
805 832
805 5079
805 2225
805 967
805 199
805 4679
805 3334
805 1141
805 1943
805 3158
805 4108
805 1684
805 1110
805 3754
805 856
805 3927
805 1207
805 4938
805 1487
805 5644
805 4290
805 4369
805 462
805 2816
805 1515
805 722
805 2567
805 1747
805 4098
805 4194
805 1035
805 4584
805 769
805 987
805 1286
805 312
805 5352
805 2807
805 808
805 1279
805 4380
805 3537
805 389
805 4654
805 1837
805 5270
805 925
805 3817
805 916
805 5500
805 1720
805 1689
805 1023
805 511
805 1469
805 2993
805 3364
805 1916
805 5345
67 4893
67 1209
67 2617
67 1431
67 4001
67 4144
67 5492
67 4032
67 1855
67 3285
67 1783
67 2180
67 1170
67 5139
67 1085
67 2228
67 2722
67 4285
67 4998
67 5560
67 672
67 1118
67 4013
67 900
67 949
67 2783
67 1876
67 832
67 5079
67 2225
67 967
67 199
67 4679
67 3334
67 1141
67 1943
67 3158
67 4108
67 1684
67 1110
67 3754
67 856
67 3927
67 1207
67 4938
67 1487
67 5644
67 4290
67 4369
67 462
67 2816
67 1515
67 722
67 2567
67 1747
67 4098
67 4194
67 1035
67 4584
67 769
67 987
67 1286
67 312
67 5352
67 2807
67 808
67 1279
67 4380
67 3537
67 389
67 4654
67 1837
67 5270
67 925
67 3817
67 916
67 5500
67 1720
67 1689
67 1023
67 511
67 1469
67 2993
67 3364
67 1916
67 5345
2529 3061
2529 2170
2529 5332
2529 3436
2529 1816
2529 2067
2529 3049
2529 2793
2529 3879
2529 4656
2529 48
2529 731
3061 2170
3061 5332
3061 3436
3061 1816
3061 2067
3061 3049
3061 2793
3061 3879
3061 4656
3061 48
3061 731
2170 5332
2170 3436
2170 1816
2170 2067
2170 3049
2170 2793
2170 3879
2170 4656
2170 48
2170 731
5332 3436
5332 1816
5332 2067
5332 3049
5332 2793
5332 3879
5332 4656
5332 48
5332 731
3436 1816
3436 2067
3436 3049
3436 2793
3436 3879
3436 4656
3436 48
3436 731
1816 2067
1816 3049
1816 2793
1816 3879
1816 4656
1816 48
1816 731
2067 3049
2067 2793
2067 3879
2067 4656
2067 48
2067 731
3049 2793
3049 3879
3049 4656
3049 48
3049 731
2793 3879
2793 4656
2793 48
2793 731
3879 4656
3879 48
3879 731
4656 48
4656 731
48 731
1690 962
1690 1105
1690 4939
384 733
384 4775
384 99
733 4775
3467 778
3467 68
4338 1559
3185 3507
5012 4568
5622 4916
1802 4789
3906 898
3906 4633
3906 946
3906 1713
3906 3491
3906 1550
898 4633
898 946
898 1713
898 3491
898 1550
4633 946
4633 1713
4633 3491
4633 1550
946 1713
946 3491
946 1550
1713 3491
1713 1550
3491 1550
1777 1709
1777 3062
1777 1349
1777 3404
1777 4873
1777 2003
1777 3396
1777 1590
1777 1512
1777 4582
1777 644
1777 317
1777 679
1709 3062
1709 1349
1709 3404
1709 4873
1709 2003
1709 3396
1709 1590
1709 1512
1709 4582
1709 644
1709 317
1709 679
3062 1349
3062 3404
3062 4873
3062 2003
3062 3396
3062 1590
3062 1512
3062 4582
3062 644
3062 317
3062 679
1349 3404
1349 4873
1349 2003
1349 3396
1349 1590
1349 1512
1349 4582
1349 644
1349 317
1349 679
3404 4873
3404 2003
3404 3396
3404 1590
3404 1512
3404 4582
3404 644
3404 317
3404 679
4873 2003
4873 3396
4873 1590
4873 1512
4873 4582
4873 644
4873 317
4873 679
2003 3396
2003 1590
2003 1512
2003 4582
2003 644
2003 317
2003 679
3396 1590
3396 1512
3396 4582
3396 644
3396 317
3396 679
1590 1512
1590 4582
1590 644
1590 317
1590 679
1512 4582
1512 644
1512 317
1512 679
4582 644
4582 317
4582 679
644 317
644 679
317 679
3482 969
3482 2736
3482 3987
3482 5686
3482 4325
969 2736
969 3987
969 5686
969 4325
969 3588
2736 3987
2736 5686
2736 4325
3987 5686
3987 4325
5686 4325
5686 3588
4228 409
4228 1381
4228 1507
4228 1425
4228 4299
4228 1566
4228 427
4228 1652
4228 1731
4228 1057
4228 459
4228 1758
409 1381
409 1507
409 1425
409 4299
409 1566
409 427
409 1652
409 1731
409 1057
409 459
409 1758
1381 1507
1381 1425
1381 4299
1381 1566
1381 427
1381 1652
1381 1731
1381 1057
1381 459
1381 1758
1507 1425
1507 4299
1507 1566
1507 427
1507 1652
1507 1731
1507 1057
1507 459
1507 1758
1425 4299
1425 1566
1425 427
1425 1652
1425 1731
1425 1057
1425 459
1425 1758
4299 1566
4299 427
4299 1652
4299 1731
4299 1057
4299 459
4299 1758
1566 427
1566 1652
1566 1731
1566 1057
1566 459
1566 1758
427 1652
427 1731
427 1057
427 459
427 1758
1652 1731
1652 1057
1652 459
1731 1057
1731 459
1731 1758
1057 459
1057 1758
459 1758
2582 888
2582 114
565 234
565 2970
234 2970
1849 2128
1849 2064
1849 4700
1849 1308
1849 480
1849 3961
2128 2064
2128 4700
2128 1308
2128 480
2128 3961
2064 4700
2064 1308
2064 480
2064 3961
4700 1308
4700 480
4700 3961
1308 480
1308 3961
480 3961
2199 5697
2199 5106
5697 5106
810 1260
2983 518
2983 496
2983 4632
2983 3692
2983 1182
2983 426
2983 151
2983 5189
518 496
518 4632
518 3692
496 4632
496 3692
496 1182
496 426
496 5189
4632 3692
4632 1182
4632 426
4632 151
4632 5189
1394 2333
1394 63
2333 63
2333 4400
2333 4313
2333 211
2333 3920
2333 4650
2333 213
2333 4191
2333 1137
2333 4277
2333 457
2333 3831
2333 3567
2333 5088
2333 2061
2333 4722
2333 1886
2333 3574
2333 3310
2333 4535
2333 59
2333 4183
2333 5016
2333 3662
2333 2622
2333 942
2333 4272
2333 4070
2333 4571
2333 3904
2333 647
2333 3479
2709 1150
2709 4843
1150 4843
1182 426
1182 151
1182 5189
426 151
426 5189
151 5189
3192 840
3192 2829
183 2749
183 655
183 1007
183 319
183 2540
183 2637
183 3074
183 3785
183 2459
183 758
183 3381
183 2084
183 4772
183 5018
183 4682
183 1677
183 3200
183 1148
183 3409
183 4708
2749 655
2749 1007
2749 319
2749 2540
2749 2637
2749 3074
2749 3785
2749 2459
2749 758
2749 3381
2749 2084
2749 4772
2749 5018
2749 4682
2749 1677
2749 3200
2749 1148
2749 3409
2749 4708
655 1007
655 319
655 2540
655 2637
655 3074
655 3785
655 2459
655 758
655 3381
655 2084
655 4772
655 5018
655 4682
655 1677
655 3200
655 1148
655 3409
655 4708
1007 319
1007 2540
1007 2637
1007 3074
1007 3785
1007 2459
1007 758
1007 3381
1007 2084
1007 4772
1007 5018
1007 4682
1007 1677
1007 3200
1007 1148
1007 3409
1007 4708
319 2540
319 2637
319 3074
319 3785
319 2459
319 758
319 3381
319 2084
319 4772
319 5018
319 4682
319 1677
319 3200
319 1148
319 3409
319 4708
2540 2637
2540 3074
2540 3785
2540 2459
2540 758
2540 3381
2540 2084
2540 4772
2540 5018
2540 4682
2540 1677
2540 3200
2540 1148
2540 3409
2540 4708
2637 3074
2637 3785
2637 2459
2637 758
2637 3381
2637 2084
2637 4772
2637 5018
2637 4682
2637 1677
2637 3200
2637 1148
2637 3409
2637 4708
3074 3785
3074 2459
3074 758
3074 3381
3074 2084
3074 4772
3074 5018
3074 4682
3074 1677
3074 3200
3074 1148
3074 3409
3074 4708
3785 2459
3785 758
3785 3381
3785 2084
3785 4772
3785 5018
3785 4682
3785 1677
3785 3200
3785 1148
3785 3409
3785 4708
2459 758
2459 3381
2459 2084
2459 4772
2459 5018
2459 4682
2459 1677
2459 3200
2459 1148
2459 3409
2459 4708
758 3381
758 2084
758 4772
758 5018
758 4682
758 1677
758 3200
758 1148
758 3409
758 4708
3381 2084
3381 4772
3381 5018
3381 4682
3381 1677
3381 3200
3381 1148
3381 3409
3381 4708
2084 4772
2084 5018
2084 4682
2084 1677
2084 3200
2084 1148
2084 3409
2084 4708
4772 5018
4772 4682
4772 1677
4772 3200
4772 1148
4772 3409
4772 4708
5018 4682
5018 1677
5018 3200
5018 1148
5018 3409
5018 4708
4682 1677
4682 3200
4682 1148
4682 3409
4682 4708
1677 3200
1677 1148
1677 3409
1677 4708
3200 1148
3200 3409
3200 4708
1148 3409
1148 4708
3409 4708
3474 192
3474 2324
5632 5337
5632 447
5632 3245
5632 5173
5337 447
447 3245
447 5173
2513 4995
2513 508
2513 4244
4995 508
4995 4244
508 4244
477 5281
477 4021
477 5015
477 2586
5281 4021
5281 5015
5281 2586
4021 5015
4021 2586
5015 2586
1239 3988
1239 3304
3988 3304
17 972
17 1700
972 1700
972 1679
972 3262
1700 1679
1700 3262
4059 1626
4059 507
4059 3176
4059 4914
4059 4010
4059 4832
1626 507
1626 5666
507 3176
507 4914
507 4010
507 4832
507 5666
1631 4563
2480 2238
2480 1787
2480 1342
2480 741
2480 2909
2480 4779
2480 2801
2480 2557
2238 1787
2238 1342
2238 741
2238 2909
2238 4779
2238 2801
2238 2557
1787 1342
1787 741
1787 2909
1787 4779
1787 2801
1787 2557
1342 4519
1342 1905
1342 2799
741 4519
741 1905
741 2799
4996 2889
4996 1746
2889 1746
1396 3780
1396 1996
3780 1996
3595 3978
3978 1235
270 958
2909 4519
2909 1905
2909 2799
4779 4519
4779 1905
4779 2799
2801 2557
2801 1905
2801 2799
2801 4519
2557 1905
2557 2799
2557 4519
4686 1189
4686 4530
4686 2194
4686 4408
1189 4530
1189 121
4530 2194
4530 4408
4530 121
3176 5666
4914 5666
4010 5666
4832 5666
2194 121
4408 121
2211 3202
2211 5575
2211 2026
2211 1805
2211 797
2211 3643
2211 4253
3202 5575
3202 2026
3202 1805
3202 797
3202 3643
3202 4253
5575 2026
5575 1805
5575 797
5575 3643
5575 4253
2026 1805
2026 797
2026 3643
2026 4253
1805 797
1805 3643
1805 4253
797 3643
797 4253
3643 4253
5135 301
4519 1905
4519 2799
1905 2799
5431 2541
5431 5217
2541 5217
173 2183
173 2957
173 3375
173 2376
2183 2957
2183 3375
2183 2376
2957 3375
2957 2376
1594 509
1594 49
509 49
5355 2451
5355 5519
5355 4940
5355 3010
2451 5519
2451 4940
2451 3010
5519 4940
5519 3010
3880 102
3880 1454
3880 5633
3880 2217
3880 193
3880 2208
3880 4718
102 1454
102 5633
102 2217
102 193
102 2208
102 4718
1454 5633
1454 2217
1454 193
1454 2208
1454 4718
5633 2217
5633 193
2217 193
2217 2208
2217 4718
2208 4718
4094 2256
4094 5118
2256 5118
42 4957
42 4716
4957 4716
2253 1970
2253 3853
1970 3853
1322 1048
1322 2077
1048 2077
2634 488
2634 5652
2634 3738
2634 2007
2634 2621
488 5652
488 3738
488 2007
488 2621
488 2543
488 20
5652 3738
5652 2007
5652 2621
5652 2543
5652 20
3738 2007
3738 2621
3738 2543
3738 20
2007 2621
2007 2543
2007 20
2297 2348
2297 4665
2348 4665
101 7
101 5698
7 5698
5038 2742
5038 2695
5038 3485
2742 2695
2742 3485
2695 3485
5076 2706
1899 5434
1899 1940
1899 5651
5434 1940
5434 5651
1940 5651
1940 2009
1940 3562
1940 1562
1940 2489
1940 5418
1940 1424
1761 3667
1761 1140
3667 1140
3082 2152
1484 1294
3908 5363
210 4371
2727 1345
4271 291
288 2262
288 768
288 104
288 1578
288 228
288 1391
288 1771
288 4598
2262 768
2262 104
2262 1578
2262 228
2262 1391
2262 1771
2262 4598
768 104
768 1578
768 228
768 1391
768 1771
768 4598
104 1578
104 228
104 1391
104 1771
104 4598
1578 228
1578 1391
1578 1771
1578 4598
228 1391
228 1771
228 4598
1391 1771
1391 4598
1771 4598
1083 1459
1366 5491
5639 4678
5639 4595
5639 4534
4678 4595
4678 4534
4595 4534
2854 5551
2854 860
2854 2718
2854 5210
2854 2576
2854 4609
2854 1159
2854 2027
5551 860
5703 2203
494 4529
1414 777
1414 2383
777 2939
2939 2383
5165 927
5165 3504
927 3504
2766 4644
2766 3544
2766 5035
2766 1112
2766 4464
2766 5623
2766 2828
4644 3544
4644 5035
4644 1112
4644 4464
4644 5623
4644 2828
3544 5035
3544 1112
3544 4464
3544 5623
3544 2828
5035 1112
5035 4464
5035 5623
5035 2828
1112 4464
1112 5623
1112 2828
4464 5623
4464 2828
5623 2828
3484 4745
3484 5240
4745 3320
4745 3101
4745 4802
4745 1485
4745 4515
4745 1320
4745 142
4745 11
4745 95
4745 1258
4745 177
5240 3320
5240 4802
5240 4515
223 127
1387 2532
1387 3316
1387 2315
1387 2316
1387 4082
1387 4837
1387 3942
1387 836
1387 1090
1387 2327
1387 505
1387 3026
1387 2285
1387 328
1387 543
1387 4145
1387 27
1387 1231
1387 1370
1387 5512
1387 4204
1387 5429
1387 5521
1387 2355
1387 5389
1387 3808
1387 995
1387 996
1387 3405
1387 5178
1387 1204
1387 5477
1387 483
1387 596
2532 3316
2532 2315
2532 2316
2532 4082
2532 4837
2532 3942
2532 836
2532 1090
2532 2327
2532 505
2532 3026
2532 2285
2532 328
2532 543
2532 4145
2532 27
2532 1231
2532 1370
2532 5512
2532 4204
2532 5429
2532 5521
2532 2355
2532 5389
2532 3808
2532 995
2532 996
2532 3405
2532 5178
2532 1204
2532 5477
2532 483
2532 596
3316 2315
3316 2316
3316 4082
3316 4837
3316 3942
3316 836
3316 1090
3316 2327
3316 505
3316 3026
3316 2285
3316 328
3316 543
3316 4145
3316 27
3316 1231
3316 1370
3316 5512
3316 4204
3316 5429
3316 5521
3316 2355
3316 5389
3316 3808
3316 995
3316 996
3316 3405
3316 5178
3316 1204
3316 5477
3316 483
3316 596
2315 2316
2315 4082
2315 4837
2315 3942
2315 836
2315 1090
2315 2327
2315 505
2315 3026
2315 2285
2315 328
2315 543
2315 4145
2315 27
2315 1231
2315 1370
2315 5512
2315 4204
2315 5429
2315 5521
2315 2355
2315 5389
2315 3808
2315 995
2315 996
2315 3405
2315 5178
2315 1204
2315 5477
2315 483
2315 596
2316 4082
2316 4837
2316 3942
2316 836
2316 1090
2316 2327
2316 505
2316 3026
2316 2285
2316 328
2316 543
2316 4145
2316 27
2316 1231
2316 1370
2316 5512
2316 4204
2316 5429
2316 5521
2316 2355
2316 5389
2316 3808
2316 995
2316 996
2316 3405
2316 5178
2316 1204
2316 5477
2316 483
2316 596
4082 4837
4082 3942
4082 836
4082 1090
4082 2327
4082 505
4082 3026
4082 2285
4082 328
4082 543
4082 4145
4082 27
4082 1231
4082 1370
4082 5512
4082 4204
4082 5429
4082 5521
4082 2355
4082 5389
4082 3808
4082 995
4082 996
4082 3405
4082 5178
4082 1204
4082 5477
4082 483
4082 596
4837 3942
4837 836
4837 1090
4837 2327
4837 505
4837 3026
4837 2285
4837 328
4837 543
4837 4145
4837 27
4837 1231
4837 1370
4837 5512
4837 4204
4837 5429
4837 5521
4837 2355
4837 5389
4837 3808
4837 995
4837 996
4837 3405
4837 5178
4837 1204
4837 5477
4837 483
4837 596
3942 836
3942 1090
3942 2327
3942 505
3942 3026
3942 2285
3942 328
3942 543
3942 4145
3942 27
3942 1231
3942 1370
3942 5512
3942 4204
3942 5429
3942 5521
3942 2355
3942 5389
3942 3808
3942 995
3942 996
3942 3405
3942 5178
3942 1204
3942 5477
3942 483
3942 596
836 1090
836 2327
836 505
836 3026
836 2285
836 328
836 543
836 4145
836 27
836 1231
836 1370
836 5512
836 4204
836 5429
836 5521
836 2355
836 5389
836 3808
836 995
836 996
836 3405
836 5178
836 1204
836 5477
836 483
836 596
1090 2327
1090 505
1090 3026
1090 2285
1090 328
1090 543
1090 4145
1090 27
1090 1231
1090 1370
1090 5512
1090 4204
1090 5429
1090 5521
1090 2355
1090 5389
1090 3808
1090 995
1090 996
1090 3405
1090 5178
1090 1204
1090 5477
1090 483
1090 596
2327 505
2327 3026
2327 2285
2327 328
2327 543
2327 4145
2327 27
2327 1231
2327 1370
2327 5512
2327 4204
2327 5429
2327 5521
2327 2355
2327 5389
2327 3808
2327 995
2327 996
2327 3405
2327 5178
2327 1204
2327 5477
2327 483
2327 596
505 3026
505 2285
505 328
505 543
505 4145
505 27
505 1231
505 1370
505 5512
505 4204
505 5429
505 5521
505 2355
505 5389
505 3808
505 995
505 996
505 3405
505 5178
505 1204
505 5477
505 483
505 596
3026 2285
3026 328
3026 543
3026 4145
3026 27
3026 1231
3026 1370
3026 5512
3026 4204
3026 5429
3026 5521
3026 2355
3026 5389
3026 3808
3026 995
3026 996
3026 3405
3026 5178
3026 1204
3026 5477
3026 483
3026 596
2285 328
2285 543
2285 4145
2285 27
2285 1231
2285 1370
2285 5512
2285 4204
2285 5429
2285 5521
2285 2355
2285 5389
2285 3808
2285 995
2285 996
2285 3405
2285 5178
2285 1204
2285 5477
2285 483
2285 596
328 543
328 4145
328 27
328 1231
328 1370
328 5512
328 4204
328 5429
328 5521
328 2355
328 5389
328 3808
328 995
328 996
328 3405
328 5178
328 1204
328 5477
328 483
328 596
543 4145
543 27
543 1231
543 1370
543 5512
543 4204
543 5429
543 5521
543 2355
543 5389
543 3808
543 995
543 996
543 3405
543 5178
543 1204
543 5477
543 483
543 596
4145 27
4145 1231
4145 1370
4145 5512
4145 4204
4145 5429
4145 5521
4145 2355
4145 5389
4145 3808
4145 995
4145 996
4145 3405
4145 5178
4145 1204
4145 5477
4145 483
4145 596
27 1231
27 1370
27 5512
27 4204
27 5429
27 5521
27 2355
27 5389
27 3808
27 995
27 996
27 3405
27 5178
27 1204
27 5477
27 483
27 596
1231 1370
1231 5512
1231 4204
1231 5429
1231 5521
1231 2355
1231 5389
1231 3808
1231 995
1231 996
1231 3405
1231 5178
1231 1204
1231 5477
1231 483
1231 596
1370 5512
1370 4204
1370 5429
1370 5521
1370 2355
1370 5389
1370 3808
1370 995
1370 996
1370 3405
1370 5178
1370 1204
1370 5477
1370 483
1370 596
5512 4204
5512 5429
5512 5521
5512 2355
5512 5389
5512 3808
5512 995
5512 996
5512 3405
5512 5178
5512 1204
5512 5477
5512 483
5512 596
4204 5429
4204 5521
4204 2355
4204 5389
4204 3808
4204 995
4204 996
4204 3405
4204 5178
4204 1204
4204 5477
4204 483
4204 596
5429 5521
5429 2355
5429 5389
5429 3808
5429 995
5429 996
5429 3405
5429 5178
5429 1204
5429 5477
5429 483
5429 596
5521 2355
5521 5389
5521 3808
5521 995
5521 996
5521 3405
5521 5178
5521 1204
5521 5477
5521 483
5521 596
2355 5389
2355 3808
2355 995
2355 996
2355 3405
2355 5178
2355 1204
2355 5477
2355 483
2355 596
5389 3808
5389 995
5389 996
5389 3405
5389 5178
5389 1204
5389 5477
5389 483
5389 596
3808 995
3808 996
3808 3405
3808 5178
3808 1204
3808 5477
3808 483
3808 596
995 996
995 3405
995 5178
995 1204
995 5477
995 483
995 596
996 3405
996 5178
996 1204
996 5477
996 483
996 596
3405 5178
3405 1204
3405 5477
3405 483
3405 596
5178 1204
5178 5477
5178 483
5178 596
1204 5477
1204 483
1204 596
5477 483
5477 596
483 596
343 1565
343 4847
343 1395
343 2133
343 4469
1565 4847
1565 1395
1565 2133
1565 4469
4847 1395
4847 2133
4847 4469
1395 2133
1395 4469
2133 4469
5692 252
5692 4764
5692 4537
5692 2640
5692 848
5692 4231
5692 4769
5692 2223
5692 4836
5692 1688
5692 4838
5692 2169
5692 1025
252 4764
252 4537
252 2640
252 848
252 4231
252 4769
252 2223
252 4836
252 1688
252 4838
252 2169
252 1025
4764 4537
4764 2640
4764 848
4764 4231
4764 4769
4764 2223
4764 4836
4764 1688
4764 4838
4764 2169
4764 1025
4537 2640
4537 848
4537 4231
4537 4769
4537 2223
4537 4836
4537 1688
4537 4838
4537 2169
4537 1025
2640 848
2640 4231
2640 4769
2640 2223
2640 4836
2640 1688
2640 4838
2640 2169
2640 1025
848 4231
848 4769
848 2223
848 4836
848 1688
848 4838
848 2169
848 1025
4231 4769
4231 2223
4231 4836
4231 1688
4231 4838
4231 2169
4231 1025
4769 2223
4769 4836
4769 1688
4769 4838
4769 2169
4769 1025
2223 4836
2223 1688
2223 4838
2223 2169
2223 1025
4836 1688
4836 4838
4836 2169
4836 1025
1688 4838
1688 2169
1688 1025
4838 2169
4838 1025
2169 1025
1093 3589
3718 1492
3718 1634
1492 2039
1492 3173
1634 3173
1634 2039
4000 2616
4000 3451
4000 2070
4000 3273
4000 2985
4000 5423
4000 2364
4000 4215
4000 4804
4000 5277
4029 5243
4029 2852
4029 2942
4029 1993
4029 3475
4029 1727
4029 5689
4029 4990
5243 2852
5243 2942
5243 1993
5243 3475
5243 1727
5243 5689
2852 2942
2852 1993
2852 3475
2852 1727
2852 5689
2852 4990
2942 1993
2942 3475
2942 1727
2942 5689
2942 4990
1993 3475
1993 1727
1993 5689
1993 4990
3475 1727
3475 5689
3475 4990
1727 5689
1727 4990
5689 4990
2826 2616
2826 3451
2826 2070
2826 4804
2826 4628
2826 627
2826 5597
2826 5277
5197 2070
2616 3451
2616 2070
2616 3273
2616 2364
2616 4215
2616 5495
2616 5423
3451 3413
3451 4215
3451 5423
3451 5663
3451 420
3451 4402
5527 4797
5527 1224
5527 3851
5527 2331
5527 3331
5527 3324
4797 1224
4797 3851
4797 2331
4797 3331
4797 3324
1224 3851
1224 2331
1224 3331
1224 3324
3851 2331
3851 3331
3851 3324
2331 3331
2331 3324
3331 3324
2070 372
2070 5423
2070 3413
2070 54
2070 2985
2070 2635
2070 4830
2070 420
2070 4402
2070 3273
3273 1153
3273 3413
3273 54
3273 2985
3273 5423
3273 4804
3273 5277
3273 2635
3273 4830
3273 4887
5423 870
5350 562
5350 1491
562 1491
2186 799
2186 2436
799 2436
2985 372
2985 870
4804 870
4804 1153
5277 1153
1691 3427
1691 3094
1691 2484
1691 2712
1691 4362
1691 5466
1691 5343
1691 586
1691 332
3427 3094
3427 2484
3427 2712
3427 4362
3094 2484
3094 2712
3094 4362
3094 5466
3094 5343
3094 586
3094 332
2484 2712
2484 4362
2484 5466
2712 4362
2712 5466
4362 5466
4362 5343
4362 586
4362 332
2718 5210
2718 2576
2718 4609
2718 1159
2718 2027
5210 2576
5210 4609
5210 1159
5210 2027
2576 4609
2576 1159
2576 2027
4609 1159
4609 2027
1159 2027
391 3969
391 2641
391 4363
391 3070
3969 2641
3969 4363
3969 3070
2641 4363
2641 3070
4363 3070
870 3413
870 4830
870 2635
3413 372
4902 1781
5597 1153
627 1153
420 4402
420 1153
4402 1153
2512 1153
5343 586
5343 332
3229 3824
385 1781
385 34
1781 34
928 4746
928 3673
4746 3673
4746 5226
3673 5226
4578 443
3014 4702
2515 46
2515 4339
2515 4067
2515 4173
46 4339
46 4067
46 4895
4339 4067
4339 4895
4339 4173
4067 4895
4067 4173
4067 2808
4067 4625
4067 2905
4067 2863
4067 4111
5036 1259
4895 4173
1704 4844
5419 1613
951 2578
951 60
951 5693
951 3392
951 3973
951 253
2578 4613
2578 4577
2578 2747
2578 5257
2578 3190
2578 3016
2578 2892
2578 1525
2493 4960
2493 1943
2493 3158
2493 5438
2493 5302
4960 1943
4960 3158
4960 5438
4960 5302
1943 3158
1943 5438
1943 5302
1943 832
1943 5079
1943 2225
1943 967
1943 199
1943 4679
1943 3334
1943 1141
1943 4108
1943 1684
1943 1110
1943 3754
1943 856
1943 3927
1943 1207
1943 4032
1943 1209
1943 1170
1943 5139
1943 1085
1943 2228
1943 2722
1943 4893
1943 5492
1943 3285
1943 4285
1943 2180
1943 4998
1943 4144
1943 5560
1943 672
1943 4013
1943 1118
1943 900
1943 949
1943 1783
1943 2617
1943 2783
1943 1431
1943 1876
1943 4938
1943 1487
1943 5644
1943 4290
1943 4369
1943 462
1943 1855
1943 2816
1943 1515
1943 722
1943 2567
1943 1747
1943 4098
1943 4194
1943 1035
1943 4584
1943 769
1943 987
1943 1286
1943 312
1943 1469
1943 2993
3158 5438
3158 5302
3158 832
3158 5079
3158 2225
3158 967
3158 199
3158 4679
3158 3334
3158 1141
3158 4108
3158 1684
3158 1110
3158 3754
3158 856
3158 3927
3158 1207
3158 4032
3158 1209
3158 1170
3158 5139
3158 1085
3158 2228
3158 2722
3158 4893
3158 5492
3158 3285
3158 4285
3158 2180
3158 4998
3158 4144
3158 5560
3158 672
3158 4013
3158 1118
3158 900
3158 949
3158 1783
3158 2617
3158 2783
3158 1431
3158 1876
3158 4938
3158 1487
3158 5644
3158 4290
3158 4369
3158 462
3158 1855
3158 2816
3158 1515
3158 722
3158 2567
3158 1747
3158 4098
3158 4194
3158 1035
3158 4584
3158 769
3158 987
3158 1286
3158 312
3158 1469
3158 2993
5438 5302
3421 3422
3421 2340
3421 3216
3421 1950
3421 2776
3421 1062
3421 5614
3421 2200
3421 952
3421 3336
3421 5333
3421 4765
3421 990
3422 2340
3422 3216
3422 1950
3422 2776
3422 1062
3422 5614
3422 2200
3422 952
3422 3336
3422 5333
3422 4765
3422 990
2340 3216
2340 1950
2340 2776
2340 1062
2340 5614
2340 2200
2340 952
2340 3336
2340 5333
2340 4765
2340 990
3216 1950
3216 2776
3216 1062
3216 5614
3216 2200
3216 952
3216 3336
3216 5333
3216 4765
3216 990
1950 2776
1950 1062
1950 5614
1950 2200
1950 952
1950 3336
1950 5333
1950 4765
1950 990
2776 1062
2776 5614
2776 2200
2776 952
2776 3336
2776 5333
2776 4765
2776 990
1062 5614
1062 2200
1062 952
1062 3336
1062 5333
1062 4765
1062 990
5614 2200
5614 952
5614 3336
5614 5333
5614 4765
5614 990
2200 952
2200 3336
2200 5333
2200 4765
2200 990
952 3336
952 5333
952 4765
952 990
3336 5333
3336 4765
5333 4765
5304 1319
3098 1780
3098 227
3098 680
1780 227
1780 680
227 680
5515 595
905 2123
905 4276
2808 4625
2808 2905
2808 2863
2808 4111
4625 2905
4625 2863
4625 4111
2905 2863
2905 4111
2863 4111
4734 4484
4734 1263
4734 4294
4734 2770
4734 406
4734 4418
4734 284
4734 3652
4734 4461
4734 2787
4484 1263
4484 4294
4484 2770
4484 406
4484 4418
4484 284
4484 3652
4484 4461
4484 2439
4484 2948
4484 4811
4484 2560
1263 4294
1263 2770
1263 406
1263 4418
1263 284
1263 3652
1263 4461
1263 2787
1263 2439
1263 2948
1263 4811
1263 2560
4294 2770
4294 406
4294 4418
4294 284
4294 3652
4294 4461
4294 2787
2770 406
2770 4418
2770 284
2770 3652
2770 4461
2770 2787
406 4418
406 284
406 3652
406 4461
406 2787
4418 284
4418 3652
4418 4461
4418 2787
4418 2439
4418 2948
4418 4811
4418 2560
284 3652
284 4461
284 2787
284 2439
284 2948
284 4811
284 2560
3652 4461
3652 2787
3652 2439
3652 2948
3652 4811
3652 2560
4461 2787
4461 2439
4461 2948
4461 4811
4461 2560
2787 2439
2787 2948
2787 4811
2787 2560
2439 2948
2439 4811
2439 2560
2948 4811
2948 2560
4811 2560
2438 5306
2438 5022
2438 4452
2438 5077
2438 3781
2438 4663
2438 4948
2438 3946
2438 2460
2438 1264
2438 3995
2438 1633
2438 5502
2438 2245
2438 5375
2438 4216
2438 4172
2438 4072
2438 2945
2438 2216
2438 4975
2438 261
2438 3197
2438 726
2438 397
5306 5022
5306 4452
5306 5077
5306 3781
5306 4663
5306 4948
5306 3946
5306 2460
5306 1264
5306 3995
5306 1633
5306 5502
5306 2245
5306 5375
5306 4216
5306 4172
5306 4072
5306 2945
5306 2216
5306 4975
5306 261
5306 3197
5306 726
5306 397
5022 4452
5022 5077
5022 3781
5022 4663
5022 4948
5022 3946
5022 2460
5022 1264
5022 3995
5022 1633
5022 5502
5022 2245
5022 5375
5022 4216
5022 4172
5022 4072
5022 2945
5022 2216
5022 4975
5022 261
5022 3197
5022 726
5022 397
4452 5077
4452 3781
4452 4663
4452 4948
4452 3946
4452 2460
4452 1264
4452 3995
4452 1633
4452 5502
4452 2245
4452 5375
4452 4216
4452 4172
4452 4072
4452 2945
4452 2216
4452 4975
4452 261
4452 3197
4452 726
4452 397
5077 3781
5077 4663
5077 4948
5077 3946
5077 2460
5077 1264
5077 3995
5077 1633
5077 5502
5077 2245
5077 5375
5077 4216
5077 4172
5077 4072
5077 2945
5077 2216
5077 4975
5077 261
5077 3197
5077 726
5077 397
3781 4663
3781 4948
3781 3946
3781 2460
3781 1264
3781 3995
3781 1633
3781 5502
3781 2245
3781 5375
3781 4216
3781 4172
3781 4072
3781 2945
3781 2216
3781 4975
3781 261
3781 3197
3781 726
3781 397
4663 4948
4663 3946
4663 2460
4663 1264
4663 3995
4663 1633
4663 5502
4663 2245
4663 5375
4663 4216
4663 4172
4663 4072
4663 2945
4663 2216
4663 4975
4663 261
4663 3197
4663 726
4663 397
4948 3946
4948 2460
4948 1264
4948 3995
4948 1633
4948 5502
4948 2245
4948 5375
4948 4216
4948 4172
4948 4072
4948 2945
4948 2216
4948 4975
4948 261
4948 3197
4948 726
4948 397
3946 2460
3946 1264
3946 3995
3946 1633
3946 5502
3946 2245
3946 5375
3946 4216
3946 4172
3946 4072
3946 2945
3946 2216
3946 4975
3946 261
3946 3197
3946 726
3946 397
2460 1264
2460 3995
2460 1633
2460 5502
2460 2245
2460 5375
2460 4216
2460 4172
2460 4072
2460 2945
2460 2216
2460 4975
2460 261
2460 3197
2460 726
2460 397
1264 3995
1264 1633
1264 5502
1264 2245
1264 5375
1264 4216
1264 4172
1264 4072
1264 2945
1264 2216
1264 4975
1264 261
3995 1633
3995 5502
3995 2245
3995 5375
3995 4216
3995 4172
3995 4072
3995 2945
3995 2216
3995 4975
3995 261
3995 3197
3995 726
3995 397
1633 5502
1633 2245
1633 5375
1633 4216
1633 4172
1633 4072
1633 2945
1633 2216
1633 4975
1633 261
1633 3197
1633 726
1633 397
5502 2245
5502 5375
5502 4216
5502 4172
5502 4072
5502 2945
5502 2216
5502 4975
5502 261
5502 3197
5502 726
5502 397
2245 5375
2245 4216
2245 4172
2245 4072
2245 2945
2245 2216
2245 4975
2245 261
2245 3197
2245 726
2245 397
5375 4216
5375 4172
5375 4072
5375 2945
5375 2216
5375 4975
5375 261
5375 3197
5375 726
5375 397
4216 4172
4216 4072
4216 2945
4216 2216
4216 4975
4216 261
4216 3197
4216 726
4216 397
4172 4072
4172 2945
4172 2216
4172 4975
4172 261
4172 3197
4172 726
4172 397
4072 2945
4072 2216
4072 4975
4072 261
4072 3197
4072 726
4072 397
2945 2216
2945 4975
2945 261
2945 3197
2945 726
2945 397
2216 4975
2216 261
2216 3197
2216 726
2216 397
4975 261
4975 3197
4975 726
4975 397
261 3197
261 726
261 397
60 4613
60 4577
60 2747
60 5257
60 3190
60 3016
60 2892
60 1525
5693 4613
5693 4577
5693 2747
5693 5257
5693 3190
5693 3016
5693 2892
5693 1525
3392 4613
3392 4577
3392 2747
3392 5257
3392 3190
3392 3016
3392 2892
3392 1525
3973 4613
3973 4577
3973 2747
3973 5257
3973 3190
3973 3016
3973 2892
3973 1525
253 4613
253 4577
253 2747
253 5257
253 3190
253 3016
253 2892
253 1525
5356 629
1944 180
1944 706
1944 2835
1944 3455
1944 1804
180 706
180 2835
180 3455
706 2835
706 3455
706 1804
2835 3455
2835 1804
3455 1804
1153 4628
1451 3012
1451 2732
1451 2241
1451 3276
1451 4437
3012 2732
2732 2241
2732 3276
2732 4437
2241 3276
2241 4437
3276 4437
5127 3745
835 1542
3328 2979
3328 170
2979 170
5571 337
5571 5266
3222 2943
3222 5655
3222 2984
3222 1196
3222 3351
3222 28
3222 5458
3222 2060
2943 5655
2943 2984
2943 1196
2943 3351
2943 28
2943 5458
2943 2060
5655 2984
5655 5458
5655 1196
5655 28
2984 3351
2984 2060
1196 3351
1196 2060
3351 28
3351 5458
28 2060
5458 2060
1743 3453
1743 2757
1743 162
1743 3434
3453 2757
3453 162
3453 3434
2757 162
162 3434
674 1603
756 2594
756 3812
2594 3812
1814 368
1814 5218
1814 3691
368 3691
368 5218
1230 4275
1230 429
4275 429
2155 1869
2155 3085
2155 2213
1869 3085
3085 2213
901 1600
901 399
901 2652
901 1033
901 2029
1600 399
1600 2652
1600 1033
1600 2029
399 2652
399 1033
399 2029
2652 1033
2652 2029
1033 2029
404 3017
404 2588
404 1114
404 4454
404 2955
404 1281
404 3888
404 1269
404 3954
404 4315
404 3446
404 2989
404 3580
404 1361
404 3991
3017 2588
3017 1114
3017 4454
3017 2955
3017 1281
3017 3888
3017 1269
3017 3954
3017 4315
3017 3446
3017 2989
3017 3580
3017 1361
3017 925
3017 3991
2588 1114
2588 4454
2588 2955
2588 1281
2588 3888
2588 1269
2588 3954
2588 4315
2588 3446
2588 2989
2588 3580
2588 1361
2588 3991
1114 4454
1114 2955
1114 1281
1114 3888
1114 1269
1114 3954
1114 4315
1114 3446
1114 2989
1114 3580
1114 1361
1114 3991
4454 2955
4454 1281
4454 3888
4454 1269
4454 3954
4454 4315
4454 3446
4454 2989
4454 3580
4454 1361
4454 3991
2955 1281
2955 3888
2955 1269
2955 3954
2955 4315
2955 3446
2955 2989
2955 3580
2955 1361
2955 3991
1281 3888
1281 1269
1281 3954
1281 4315
1281 3446
1281 2989
1281 3580
1281 1361
1281 3991
3888 1269
3888 3954
3888 4315
3888 3446
3888 2989
3888 3580
3888 1361
3888 3991
1269 3954
1269 4315
1269 3446
1269 2989
1269 3580
1269 1361
1269 3991
3954 4315
3954 3446
3954 2989
3954 3580
3954 1361
3954 3991
4315 3446
4315 2989
4315 3580
4315 1361
4315 3991
3446 2989
3446 3580
3446 1361
3446 3991
2989 3580
2989 1361
2989 3991
3580 1361
3580 3991
5462 4550
5462 2886
5462 474
4550 2886
4550 474
3635 828
3635 2771
3635 648
3635 1460
3635 154
828 2771
828 648
828 1460
828 154
828 2653
2771 648
2771 1460
2771 154
2771 2653
648 1460
648 154
648 2653
1460 154
1460 2927
1460 1101
1460 4725
1460 2653
154 2653
5537 2843
2843 1788
3260 1956
3260 396
3260 3483
1956 396
1956 3483
935 5478
935 3636
935 545
935 4747
935 4816
935 5166
935 2836
935 5416
935 4467
935 345
5478 3636
5478 545
5478 4747
5478 4816
5478 5166
5478 2836
5478 5416
5478 4467
5478 345
3636 545
3636 4747
3636 4816
3636 5166
3636 2836
3636 5416
3636 4467
3636 345
545 4747
545 4816
545 5166
545 2836
545 345
4747 4816
4747 5166
4747 2836
4747 5416
4747 4467
4747 345
4816 5166
4816 2836
5166 2836
5166 345
2836 345
5416 4467
4400 4313
4400 211
4400 3920
4400 4650
4400 213
4400 4191
4400 1137
4400 4277
4400 457
4400 3831
4400 647
4313 211
4313 3920
4313 4650
4313 213
4313 4191
4313 1137
4313 4277
4313 457
4313 3831
4313 647
211 3920
211 4650
211 213
211 4191
211 1137
211 4277
211 457
211 3831
211 647
3920 4650
3920 213
3920 4191
3920 1137
3920 4277
3920 457
3920 3831
3920 647
4650 213
4650 4191
4650 1137
4650 4277
4650 457
4650 3831
4650 3567
4650 5088
4650 2061
4650 4722
4650 1886
4650 3574
4650 3310
4650 4535
4650 59
4650 4183
4650 5016
4650 3662
4650 2622
4650 942
4650 4272
4650 4070
4650 4571
4650 3904
4650 647
4650 3479
213 4191
213 1137
213 4277
213 457
213 3831
213 3567
213 5088
213 2061
213 4722
213 1886
213 3574
213 3310
213 4535
213 59
213 4183
213 5016
213 3662
213 2622
213 942
213 4272
213 4070
213 4571
213 3904
213 647
213 3479
4191 1137
4191 4277
4191 457
4191 3831
4191 647
1137 4277
1137 457
1137 3831
1137 3567
1137 5088
1137 2061
1137 4722
1137 1886
1137 3574
1137 3310
1137 4535
1137 59
1137 4183
1137 5016
1137 3662
1137 2622
1137 942
1137 4272
1137 4070
1137 4571
1137 3904
1137 647
1137 3479
4277 457
4277 3831
4277 647
457 3831
457 647
3831 3567
3831 5088
3831 2061
3831 4722
3831 1886
3831 3574
3831 3310
3831 4535
3831 59
3831 4183
3831 5016
3831 3662
3831 2622
3831 942
3831 4272
3831 4070
3831 4571
3831 3904
3831 647
3831 3479
3567 5088
3567 2061
3567 4722
3567 1886
3567 3574
3567 3310
3567 4535
3567 59
3567 4183
3567 5016
3567 3662
3567 3479
5088 2061
5088 4722
5088 1886
5088 3574
5088 3310
5088 4535
5088 59
5088 4183
5088 5016
5088 3662
5088 3479
2061 4722
2061 1886
2061 3574
2061 3310
2061 4535
2061 59
2061 4183
2061 5016
2061 3662
2061 3479
4722 1886
4722 3574
4722 3310
4722 4535
4722 59
4722 4183
4722 5016
4722 3662
4722 3479
1886 3574
1886 3310
1886 4535
1886 59
1886 4183
1886 5016
1886 3662
1886 2622
1886 942
1886 4272
1886 4070
1886 4571
1886 3904
1886 3479
3574 3310
3574 4535
3574 59
3574 4183
3574 5016
3574 3662
3574 3479
3310 4535
3310 59
3310 4183
3310 5016
3310 3662
3310 3479
4535 59
4535 4183
4535 5016
4535 3662
4535 3479
59 4183
59 5016
59 3662
59 3479
4183 5016
4183 3662
5016 3662
5016 2622
5016 942
5016 4272
5016 4070
5016 4571
5016 3904
5016 3479
3662 3479
2049 4655
2049 2456
2049 1895
2049 2999
2049 1403
2049 5150
2049 2496
2049 128
2049 2134
4655 2456
4655 1895
4655 5401
4655 2697
4655 2999
4655 1403
4655 5150
4655 2496
4655 128
4655 807
4655 1839
2456 1895
2456 5401
2456 2697
2456 2999
2456 1403
2456 5150
2456 2496
2456 1839
2456 4984
2456 1267
2456 5248
2456 1064
2456 1245
2456 1010
2456 807
2456 2134
2456 2062
2456 1489
2456 4146
1895 5401
1895 2697
1895 128
1895 2134
5401 2999
5401 1403
5401 5150
5401 2496
5401 128
5401 2134
2697 2999
2697 1403
2697 5150
2697 2496
2697 128
2697 2134
2999 128
2999 2134
1403 128
1403 2134
5150 128
5150 2134
2496 128
2496 2134
128 2134
128 1245
128 1010
128 807
128 1839
128 4984
128 1267
128 5248
128 1064
128 2062
128 1489
128 4146
128 3696
2134 1839
2134 807
1839 4984
1839 1267
1839 5248
1839 1064
1839 1010
1839 1245
1839 2062
1839 1489
1839 4146
4984 1267
4984 5248
4984 1064
4984 807
4984 3696
1267 5248
1267 1064
1267 807
1267 3696
1267 5705
5248 1064
5248 5557
5248 5705
5248 5592
5248 1044
5248 2351
5248 5539
5248 2654
5248 4685
5248 1384
5248 773
5248 3862
5248 298
5248 5143
5248 3360
5248 157
5248 3967
5248 2873
5248 2190
5248 1481
5248 3494
5248 5587
5248 830
5248 5496
5248 1646
5248 3547
5248 5296
5248 1255
5248 588
5248 2352
5248 3297
5248 2806
5248 5664
5248 1508
5248 1009
5248 2631
5248 403
5248 4121
5248 5387
5248 5056
5248 5191
5248 5468
5248 2396
5248 5479
5248 715
5248 3719
5248 514
5248 66
5248 203
5248 4224
5248 783
5248 2907
5248 1122
5248 3564
5248 1769
5248 3619
5248 807
5248 478
5248 4645
5248 1630
5248 3856
5248 2998
5248 5365
5248 2601
5248 4027
5248 2812
5248 3696
5248 339
5248 1591
5248 791
5248 4394
5248 5650
5248 713
5248 750
5248 2602
1064 807
1245 1010
1245 807
1245 2062
1010 807
807 2062
807 1489
807 4146
807 3696
961 4038
369 2117
369 1216
369 2669
369 217
2117 1216
2117 2669
2117 217
1216 2669
1216 217
2669 217
600 1912
600 2667
600 490
600 1915
600 1620
600 2120
600 3898
600 3724
600 3725
600 4945
600 1446
600 2538
600 2017
600 1304
600 4667
600 451
600 4672
600 929
600 5499
600 3951
600 5362
600 3566
600 2734
600 4196
600 2189
600 625
600 1856
600 1061
600 2895
600 122
600 3250
600 815
600 3398
600 1948
600 3620
600 4062
600 4251
600 2476
600 2655
600 1419
600 4386
600 3255
600 2147
600 2207
600 2359
600 4704
600 3217
600 859
600 1647
600 3759
600 786
600 1568
600 1896
600 248
600 4698
1912 2667
1912 490
1912 1915
1912 1620
1912 2120
1912 3898
1912 3724
1912 3725
1912 4945
1912 1446
1912 2538
1912 2017
1912 1304
1912 4667
1912 451
1912 4672
1912 929
1912 5499
1912 3951
1912 5362
1912 3566
1912 2734
1912 4196
1912 2189
1912 625
1912 1856
1912 1061
1912 2895
1912 122
1912 3250
1912 815
1912 3398
1912 1948
1912 3620
1912 4062
1912 4251
1912 2476
1912 2655
1912 1419
1912 4386
1912 3255
1912 2147
1912 2207
1912 2359
1912 4704
1912 3217
1912 859
1912 1647
1912 3759
1912 786
1912 1568
1912 1896
1912 248
1912 4698
2667 490
2667 1915
2667 1620
2667 2120
2667 3898
2667 3724
2667 3725
2667 4945
2667 1446
2667 2538
2667 2017
2667 1304
2667 4667
2667 451
2667 4672
2667 929
2667 5499
2667 3951
2667 5362
2667 3566
2667 2734
2667 4196
2667 2189
2667 625
2667 1856
2667 1061
2667 2895
2667 122
2667 3250
2667 815
2667 3398
2667 1948
2667 3620
2667 4062
2667 4251
2667 2476
2667 2655
2667 1419
2667 4386
2667 3255
2667 2147
2667 2207
2667 2359
2667 4704
2667 3217
2667 859
2667 1647
2667 3759
2667 786
2667 1568
2667 1896
2667 248
2667 4698
490 1915
490 1620
490 2120
490 3898
490 3724
490 3725
490 4945
490 1446
490 2538
490 2017
490 1304
490 4667
490 451
490 4672
490 929
490 5499
490 3951
490 5362
490 3566
490 2734
490 4196
490 2189
490 625
490 1856
490 1061
490 2895
490 122
490 3250
490 815
490 3398
490 1948
490 3620
490 4062
490 4251
490 2476
490 2655
490 1419
490 4386
490 3255
490 2147
490 2207
490 2359
490 4704
490 3217
490 859
490 1647
490 3759
490 786
490 1568
490 1896
490 248
490 4698
1915 1620
1915 2120
1915 3898
1915 3724
1915 3725
1915 4945
1915 1446
1915 2538
1915 2017
1915 1304
1915 4667
1915 451
1915 4672
1915 929
1915 5499
1915 3951
1915 5362
1915 3566
1915 2734
1915 4196
1915 2189
1915 625
1915 1856
1915 1061
1915 2895
1915 122
1915 3250
1915 815
1915 3398
1915 1948
1915 3620
1915 4062
1915 4251
1915 2476
1915 2655
1915 1419
1915 4386
1915 3255
1915 2147
1915 2207
1915 2359
1915 4704
1915 3217
1915 859
1915 1647
1915 3759
1915 786
1915 1568
1915 1896
1915 248
1915 4698
1620 2120
1620 3898
1620 3724
1620 3725
1620 4945
1620 1446
1620 2538
1620 2017
1620 1304
1620 4667
1620 451
1620 4672
1620 929
1620 5499
1620 3951
1620 5362
1620 3566
1620 2734
1620 4196
1620 2189
1620 625
1620 1856
1620 1061
1620 2895
1620 122
1620 3250
1620 815
1620 3398
1620 1948
1620 3620
1620 4062
1620 4251
1620 2476
1620 2655
1620 1419
1620 4386
1620 3255
1620 2147
1620 2207
1620 2359
1620 4704
1620 3217
1620 859
1620 1647
1620 3759
1620 786
1620 1568
1620 1896
1620 248
1620 4698
2120 3898
2120 3724
2120 3725
2120 4945
2120 1446
2120 2538
2120 2017
2120 1304
2120 4667
2120 451
2120 4672
2120 929
2120 5499
2120 3951
2120 5362
2120 3566
2120 2734
2120 4196
2120 2189
2120 625
2120 1856
2120 1061
2120 2895
2120 122
2120 3250
2120 815
2120 3398
2120 1948
2120 3620
2120 4062
2120 4251
2120 2476
2120 2655
2120 1419
2120 4386
2120 3255
2120 2147
2120 2207
2120 2359
2120 4704
2120 3217
2120 859
2120 1647
2120 3759
2120 786
2120 1568
2120 1896
2120 248
2120 4698
3898 3724
3898 3725
3898 4945
3898 1446
3898 2538
3898 2017
3898 1304
3898 4667
3898 451
3898 4672
3898 929
3898 5499
3898 3951
3898 5362
3898 3566
3898 2734
3898 4196
3898 2189
3898 625
3898 1856
3898 1061
3898 2895
3898 122
3898 3250
3898 815
3898 3398
3898 1948
3898 3620
3898 4062
3898 4251
3898 2476
3898 2655
3898 1419
3898 4386
3898 3255
3898 2147
3898 2207
3898 2359
3898 4704
3898 3217
3898 859
3898 1647
3898 3759
3898 786
3898 1568
3898 1896
3898 248
3898 4698
3724 3725
3724 4945
3724 1446
3724 2538
3724 2017
3724 1304
3724 4667
3724 451
3724 4672
3724 929
3724 5499
3724 3951
3724 5362
3724 3566
3724 2734
3724 4196
3724 2189
3724 625
3724 1856
3724 1061
3724 2895
3724 122
3724 3250
3724 815
3724 3398
3724 1948
3724 3620
3724 4062
3724 4251
3724 2476
3724 2655
3724 1419
3724 4386
3724 3255
3724 2147
3724 2207
3724 2359
3724 4704
3724 3217
3724 859
3724 1647
3724 3759
3724 786
3724 1568
3724 1896
3724 248
3724 4698
3725 4945
3725 1446
3725 2538
3725 2017
3725 1304
3725 4667
3725 451
3725 4672
3725 929
3725 5499
3725 3951
3725 5362
3725 3566
3725 2734
3725 4196
3725 2189
3725 625
3725 1856
3725 1061
3725 2895
3725 122
3725 3250
3725 815
3725 3398
3725 1948
3725 3620
3725 4062
3725 4251
3725 2476
3725 2655
3725 1419
3725 4386
3725 3255
3725 2147
3725 2207
3725 2359
3725 4704
3725 3217
3725 859
3725 1647
3725 3759
3725 786
3725 1568
3725 1896
3725 248
3725 4698
4945 1446
4945 2538
4945 2017
4945 1304
4945 4667
4945 451
4945 4672
4945 929
4945 5499
4945 3951
4945 5362
4945 3566
4945 2734
4945 4196
4945 2189
4945 625
4945 1856
4945 1061
4945 2895
4945 122
4945 3250
4945 815
4945 3398
4945 1948
4945 3620
4945 4062
4945 4251
4945 2476
4945 2655
4945 1419
4945 4386
4945 3255
4945 2147
4945 2207
4945 2359
4945 4704
4945 3217
4945 859
4945 1647
4945 3759
4945 786
4945 1568
4945 1896
4945 248
4945 4698
1446 2538
1446 2017
1446 1304
1446 4667
1446 451
1446 4672
1446 929
1446 5499
1446 3951
1446 5362
1446 3566
1446 2734
1446 4196
1446 2189
1446 625
1446 1856
1446 1061
1446 2895
1446 122
1446 3250
1446 815
1446 3398
1446 1948
1446 3620
1446 4062
1446 4251
1446 2476
1446 2655
1446 1419
1446 4386
1446 3255
1446 2147
1446 2207
1446 2359
1446 4704
1446 3217
1446 859
1446 1647
1446 3759
1446 786
1446 1568
1446 1896
1446 248
1446 4698
2538 2017
2538 1304
2538 4667
2538 451
2538 4672
2538 929
2538 5499
2538 3951
2538 5362
2538 3566
2538 2734
2538 4196
2538 2189
2538 625
2538 1856
2538 1061
2538 2895
2538 122
2538 3250
2538 815
2538 3398
2538 1948
2538 3620
2538 4062
2538 4251
2538 2476
2538 2655
2538 1419
2538 4386
2538 3255
2538 2147
2538 2207
2538 2359
2538 4704
2538 3217
2538 859
2538 1647
2538 3759
2538 786
2538 1568
2538 1896
2538 248
2538 4698
2017 1304
2017 4667
2017 451
2017 4672
2017 929
2017 5499
2017 3951
2017 5362
2017 3566
2017 2734
2017 4196
2017 2189
2017 625
2017 1856
2017 1061
2017 2895
2017 122
2017 3250
2017 815
2017 3398
2017 1948
2017 3620
2017 4062
2017 4251
2017 2476
2017 2655
2017 1419
2017 4386
2017 3255
2017 2147
2017 2207
2017 2359
2017 4704
2017 3217
2017 859
2017 1647
2017 3759
2017 786
2017 1568
2017 1896
2017 248
2017 4698
1304 4667
1304 451
1304 4672
1304 929
1304 5499
1304 3951
1304 5362
1304 3566
1304 2734
1304 4196
1304 2189
1304 625
1304 1856
1304 1061
1304 2895
1304 122
1304 3250
1304 815
1304 3398
1304 1948
1304 3620
1304 4062
1304 4251
1304 2476
1304 2655
1304 1419
1304 4386
1304 3255
1304 2147
1304 2207
1304 2359
1304 4704
1304 3217
1304 859
1304 1647
1304 3759
1304 786
1304 1568
1304 1896
1304 248
1304 4698
4667 451
4667 4672
4667 929
4667 5499
4667 3951
4667 5362
4667 3566
4667 2734
4667 4196
4667 2189
4667 625
4667 1856
4667 1061
4667 2895
4667 122
4667 3250
4667 815
4667 3398
4667 1948
4667 3620
4667 4062
4667 4251
4667 2476
4667 2655
4667 1419
4667 4386
4667 3255
4667 2147
4667 2207
4667 2359
4667 4704
4667 3217
4667 859
4667 1647
4667 3759
4667 786
4667 1568
4667 1896
4667 248
4667 4698
451 4672
451 929
451 5499
451 3951
451 5362
451 3566
451 2734
451 4196
451 2189
451 625
451 1856
451 1061
451 2895
451 122
451 3250
451 815
451 3398
451 1948
451 3620
451 4062
451 4251
451 2476
451 2655
451 1419
451 4386
451 3255
451 2147
451 2207
451 2359
451 4704
451 3217
451 859
451 1647
451 3759
451 786
451 1568
451 1896
451 248
451 4698
4672 929
4672 5499
4672 3951
4672 5362
4672 3566
4672 2734
4672 4196
4672 2189
4672 625
4672 1856
4672 1061
4672 2895
4672 122
4672 3250
4672 815
4672 3398
4672 1948
4672 3620
4672 4062
4672 4251
4672 2476
4672 2655
4672 1419
4672 4386
4672 3255
4672 2147
4672 2207
4672 2359
4672 4704
4672 3217
4672 859
4672 1647
4672 3759
4672 786
4672 1568
4672 1896
4672 248
4672 4698
929 5499
929 3951
929 5362
929 3566
929 2734
929 4196
929 2189
929 625
929 1856
929 1061
929 2895
929 122
929 3250
929 815
929 3398
929 1948
929 3620
929 4062
929 4251
929 2476
929 2655
929 1419
929 4386
929 3255
929 2147
929 2207
929 2359
929 4704
929 3217
929 859
929 1647
929 3759
929 786
929 1568
929 1896
929 248
929 4698
5499 3951
5499 5362
5499 3566
5499 2734
5499 4196
5499 2189
5499 625
5499 1856
5499 1061
5499 2895
5499 122
5499 3250
5499 815
5499 3398
5499 1948
5499 3620
5499 4062
5499 4251
5499 2476
5499 2655
5499 1419
5499 4386
5499 3255
5499 2147
5499 2207
5499 2359
5499 4704
5499 3217
5499 859
5499 1647
5499 3759
5499 786
5499 1568
5499 1896
5499 248
5499 4698
5499 854
5499 5001
3951 5362
3951 3566
3951 2734
3951 4196
3951 2189
3951 625
3951 1856
3951 1061
3951 2895
3951 122
3951 3250
3951 815
3951 3398
3951 1948
3951 3620
3951 4062
3951 4251
3951 2476
3951 2655
3951 1419
3951 4386
3951 3255
3951 2147
3951 2207
3951 2359
3951 4704
3951 3217
3951 859
3951 1647
3951 3759
3951 786
3951 1568
3951 1896
3951 248
3951 4698
5362 3566
5362 2734
5362 4196
5362 2189
5362 625
5362 1856
5362 1061
5362 2895
5362 122
5362 3250
5362 815
5362 3398
5362 1948
5362 3620
5362 4062
5362 4251
5362 2476
5362 2655
5362 1419
5362 4386
5362 3255
5362 2147
5362 2207
5362 2359
5362 4704
5362 3217
5362 859
5362 1647
5362 3759
5362 786
5362 1568
5362 1896
5362 248
5362 4698
3566 2734
3566 4196
3566 2189
3566 625
3566 1856
3566 1061
3566 2895
3566 122
3566 3250
3566 815
3566 3398
3566 1948
3566 3620
3566 4062
3566 4251
3566 2476
3566 2655
3566 1419
3566 4386
3566 3255
3566 2147
3566 2207
3566 2359
3566 4704
3566 3217
3566 859
3566 1647
3566 3759
3566 786
3566 1568
3566 1896
3566 248
3566 4698
2734 4196
2734 2189
2734 625
2734 1856
2734 1061
2734 2895
2734 122
2734 3250
2734 815
2734 3398
2734 1948
2734 3620
2734 4062
2734 4251
2734 2476
2734 2655
2734 1419
2734 4386
2734 3255
2734 2147
2734 2207
2734 2359
2734 4704
2734 3217
2734 859
2734 1647
2734 3759
2734 786
2734 1568
2734 1896
2734 248
2734 4698
4196 2189
4196 625
4196 1856
4196 1061
4196 2895
4196 122
4196 3250
4196 815
4196 3398
4196 1948
4196 3620
4196 4062
4196 4251
4196 2476
4196 2655
4196 1419
4196 4386
4196 3255
4196 2147
4196 2207
4196 2359
4196 4704
4196 3217
4196 859
4196 1647
4196 3759
4196 786
4196 1568
4196 1896
4196 248
4196 4698
2189 625
2189 1856
2189 1061
2189 2895
2189 122
2189 3250
2189 815
2189 3398
2189 1948
2189 3620
2189 4062
2189 4251
2189 2476
2189 2655
2189 1419
2189 4386
2189 3255
2189 2147
2189 2207
2189 2359
2189 4704
2189 3217
2189 859
2189 1647
2189 3759
2189 786
2189 1568
2189 1896
2189 248
2189 4698
625 1856
625 1061
625 2895
625 122
625 3250
625 815
625 3398
625 1948
625 3620
625 4062
625 4251
625 2476
625 2655
625 1419
625 4386
625 3255
625 2147
625 2207
625 2359
625 4704
625 3217
625 859
625 1647
625 3759
625 786
625 1568
625 1896
625 248
625 4698
1856 1061
1856 2895
1856 122
1856 3250
1856 815
1856 3398
1856 1948
1856 3620
1856 4062
1856 4251
1856 2476
1856 2655
1856 1419
1856 4386
1856 3255
1856 2147
1856 2207
1856 2359
1856 4704
1856 3217
1856 859
1856 1647
1856 3759
1856 786
1856 1568
1856 1896
1856 248
1856 4698
1061 2895
1061 122
1061 3250
1061 815
1061 3398
1061 1948
1061 3620
1061 4062
1061 4251
1061 2476
1061 2655
1061 1419
1061 4386
1061 3255
1061 2147
1061 2207
1061 2359
1061 4704
1061 3217
1061 859
1061 1647
1061 3759
1061 786
1061 1568
1061 1896
1061 248
1061 4698
2895 122
2895 3250
2895 815
2895 3398
2895 1948
2895 3620
2895 4062
2895 4251
2895 2476
2895 2655
2895 1419
2895 4386
2895 3255
2895 2147
2895 2207
2895 2359
2895 4704
2895 3217
2895 859
2895 1647
2895 3759
2895 786
2895 1568
2895 1896
2895 248
2895 4698
122 3250
122 815
122 3398
122 1948
122 3620
122 4062
122 4251
122 2476
122 2655
122 1419
122 4386
122 3255
122 2147
122 2207
122 2359
122 4704
122 3217
122 859
122 1647
122 3759
122 786
122 1568
122 1896
122 248
3250 815
3250 3398
3250 1948
3250 3620
3250 4062
3250 4251
3250 2476
3250 2655
3250 1419
3250 4386
3250 3255
3250 2147
3250 2207
3250 2359
3250 4704
3250 3217
3250 859
3250 1647
3250 3759
3250 786
3250 1568
3250 1896
3250 248
3250 4698
815 3398
815 1948
815 3620
815 4062
815 4251
815 2476
815 2655
815 1419
815 4386
815 3255
815 2147
815 2207
815 2359
815 4704
815 3217
815 859
815 1647
815 3759
815 786
815 1568
815 1896
815 248
815 4698
3398 1948
3398 3620
3398 4062
3398 4251
3398 2476
3398 2655
3398 1419
3398 4386
3398 3255
3398 2147
3398 2207
3398 2359
3398 4704
3398 3217
3398 859
3398 1647
3398 3759
3398 786
3398 1568
3398 1896
3398 248
3398 4698
1948 3620
1948 4062
1948 4251
1948 2476
1948 2655
1948 1419
1948 4386
1948 3255
1948 2147
1948 2207
1948 2359
1948 4704
1948 3217
1948 859
1948 1647
1948 3759
1948 786
1948 1568
1948 1896
1948 248
1948 4698
3620 4062
3620 4251
3620 2476
3620 2655
3620 1419
3620 4386
3620 3255
3620 2147
3620 2207
3620 2359
3620 4704
3620 3217
3620 859
3620 1647
3620 3759
3620 786
3620 1568
3620 1896
3620 248
3620 4698
4062 4251
4062 2476
4062 2655
4062 1419
4062 4386
4062 3255
4062 2147
4062 2207
4062 2359
4062 4704
4062 3217
4062 859
4062 1647
4062 3759
4062 786
4062 1568
4062 1896
4062 248
4062 4698
4251 2476
4251 2655
4251 1419
4251 4386
4251 3255
4251 2147
4251 2207
4251 2359
4251 4704
4251 3217
4251 859
4251 1647
4251 3759
4251 786
4251 1568
4251 1896
4251 248
4251 4698
2476 2655
2476 1419
2476 4386
2476 3255
2476 2147
2476 2207
2476 2359
2476 4704
2476 3217
2476 859
2476 1647
2476 3759
2476 786
2476 1568
2476 1896
2476 248
2476 4698
2655 1419
2655 4386
2655 3255
2655 2147
2655 2207
2655 2359
2655 4704
2655 3217
2655 859
2655 1647
2655 3759
2655 786
2655 1568
2655 1896
2655 248
2655 4698
1419 4386
1419 3255
1419 2147
1419 2207
1419 2359
1419 4704
1419 3217
1419 859
1419 1647
1419 3759
1419 786
1419 1568
1419 1896
1419 248
1419 4698
4386 3255
4386 2147
4386 2207
4386 2359
4386 4704
4386 3217
4386 859
4386 1647
4386 3759
4386 786
4386 1568
4386 1896
4386 248
4386 4698
3255 2147
3255 2207
3255 2359
3255 4704
3255 3217
3255 859
3255 1647
3255 3759
3255 786
3255 1568
3255 1896
3255 248
3255 4698
2147 2207
2147 2359
2147 4704
2147 3217
2147 859
2147 1647
2147 3759
2147 786
2147 1568
2147 1896
2147 248
2147 4698
2207 2359
2207 4704
2207 3217
2207 859
2207 1647
2207 3759
2207 786
2207 1568
2207 4698
2359 4704
2359 3217
2359 859
2359 1647
2359 3759
2359 786
2359 1568
2359 1896
2359 248
2359 4698
4704 3217
4704 859
4704 1647
4704 3759
4704 786
4704 1568
4704 1896
4704 248
4704 4698
3217 859
3217 1647
3217 3759
3217 786
3217 1568
3217 1896
3217 248
3217 4698
859 1647
859 3759
859 786
859 1568
859 4698
1647 3759
1647 786
1647 1568
1647 1896
1647 248
1647 4698
3759 786
3759 1568
3759 1896
3759 248
3759 4698
786 1568
786 1896
786 248
786 4698
1568 1896
1568 248
1896 248
1740 1701
1740 2967
1701 3730
1701 3403
1701 2782
1701 5391
1701 200
3730 2967
2967 3403
2967 2782
2967 5391
2967 200
2840 116
2840 1919
116 1919
894 5530
894 500
894 1152
5530 500
5530 1152
500 1152
500 1569
500 3382
1569 3382
1517 4834
1517 2505
4834 2505
4834 1307
4834 413
2505 1307
2505 413
5557 5705
5705 5592
5705 1044
5705 2351
5705 5539
5705 2654
5705 4685
5705 1384
5705 773
5705 3862
5705 298
5705 5143
5705 3360
5705 157
5705 3967
5705 2873
5705 2190
5705 1481
5705 3494
5705 5587
5705 830
5705 5496
5705 1646
5705 3547
5705 5296
5705 1255
5705 588
5705 2352
5705 3297
5705 2806
5705 5664
5705 1508
5705 1009
5705 2631
5705 403
5705 4121
5705 5387
5705 5056
5705 5191
5705 5468
5705 2396
5705 5479
5705 715
5705 3719
5705 514
5705 4224
5705 783
5705 2907
5705 1122
5705 3564
5705 1769
5705 3619
5705 478
5705 4645
5705 1630
5705 3856
5705 2998
5705 5365
5705 2601
5705 4027
5705 2812
5705 339
5705 1591
5705 791
5705 4394
5705 5650
5705 713
5705 750
5705 2602
5539 2654
5539 3682
5539 3431
4880 3517
4662 897
5169 4209
5169 373
5169 1737
5169 941
5169 4321
5169 1889
5169 2492
5169 5647
4209 373
4209 1737
4209 941
4209 4321
4209 1889
4209 2492
4209 5647
373 1737
373 941
373 4321
373 1889
373 2492
373 5647
1737 941
1737 4321
1737 1889
1737 2492
1737 5647
941 4321
941 1889
941 2492
4321 1889
4321 2492
4321 5647
1889 5647
1108 379
379 1169
379 3034
3801 592
3801 559
3801 2739
592 559
592 2739
592 1474
592 3735
592 4107
592 4810
592 2107
592 3664
592 1577
592 468
592 5237
592 1858
592 5134
592 64
592 349
592 3654
592 3703
567 5494
4101 1745
3832 1639
1991 959
1991 4799
1991 1016
959 4799
959 1016
4799 1016
3899 2946
66 203
4567 1540
1540 5292
1540 4624
1540 3597
1540 3132
1540 2646
1540 610
1540 4576
1540 2688
1540 5605
1540 4221
1540 2008
1540 3036
1540 670
1540 263
1540 3916
1540 814
1540 5358
1540 168
1540 1946
1540 2595
1540 2035
1540 5005
1540 1669
1540 1499
1540 4617
1540 3406
1540 1528
1540 5147
1540 4383
1540 3333
1540 2382
1540 1668
1540 2720
1540 100
1540 415
1540 2452
1540 3327
1540 4539
1540 2670
1540 2516
1540 3471
1540 5390
1540 4296
1540 2858
1540 8
1540 3472
1540 5665
1540 119
705 5225
705 2584
705 103
705 1164
5225 2584
2584 103
2584 1164
4379 4295
4379 5460
4379 820
4295 5460
4295 820
5460 820
1487 5644
1487 389
1487 3607
1487 1515
1487 4938
1487 832
1487 5079
1487 2225
1487 199
1487 5492
1487 3285
1487 4285
1487 2180
1487 4290
1487 3334
1487 4369
1487 462
1487 1855
1487 1684
1487 2816
1487 1110
1487 3754
1487 722
1487 856
1487 3927
1487 1783
1487 2567
1487 1207
1487 1747
1487 4098
1487 4194
1487 1035
1487 4584
1487 769
1487 987
1487 1286
1487 312
1487 5352
1487 2807
1487 808
1487 1279
1487 4380
1487 3537
1487 4654
1487 1837
1487 5270
1487 925
1487 3817
1487 916
1487 5500
1487 1720
1487 1689
1487 1023
1487 511
5644 389
5644 3607
5644 1515
5644 4938
5644 832
5644 5079
5644 2225
5644 199
5644 5492
5644 3285
5644 4285
5644 2180
5644 4290
5644 3334
5644 4369
5644 462
5644 1855
5644 1684
5644 2816
5644 1110
5644 3754
5644 722
5644 856
5644 3927
5644 1783
5644 2567
5644 1207
5644 1747
5644 4098
5644 4194
5644 1035
5644 4584
5644 769
5644 987
5644 1286
5644 312
5644 5352
5644 2807
5644 808
5644 1279
5644 4380
5644 3537
5644 4654
5644 1837
5644 5270
5644 925
5644 3817
5644 916
5644 5500
5644 1720
5644 1689
5644 1023
5644 511
389 3607
389 1515
389 1747
389 312
389 832
389 5352
389 5492
389 3285
389 4285
389 2180
389 4290
389 4369
389 3334
389 2807
389 808
389 4194
389 462
389 769
389 1855
389 1279
389 1684
389 4380
389 3754
389 1286
389 3537
389 722
389 1783
389 4654
3607 1515
1515 4938
1515 832
1515 5079
1515 2225
1515 199
1515 5492
1515 3285
1515 4285
1515 2180
1515 4290
1515 3334
1515 4369
1515 462
1515 1855
1515 1684
1515 2816
1515 1110
1515 3754
1515 722
1515 856
1515 3927
1515 1783
1515 2567
1515 1207
1515 1747
1515 4098
1515 4194
1515 1035
1515 4584
1515 769
1515 987
1515 1286
1515 312
1515 5352
1515 2807
1515 808
1515 1279
1515 4380
1515 3537
1515 4654
1515 1837
1515 5270
1515 925
1515 3817
1515 916
1515 5500
1515 1720
1515 1689
1515 1023
1515 511
4943 3674
215 906
215 678
906 678
906 438
678 438
2925 3374
2925 3198
2925 2802
2925 3498
2925 3974
2925 2426
3374 3198
3374 2802
3374 3498
3374 3974
3374 2426
3198 2802
3198 3498
3198 3974
3198 2426
2802 3498
2802 3974
2802 2426
3498 3974
3498 2426
3974 2426
118 1870
118 4051
118 1217
118 4476
118 3530
118 2546
118 2448
118 1921
118 3079
118 3564
1870 4051
1870 1217
1870 4476
1870 3530
1870 2546
1870 2448
1870 1921
1870 3079
1870 3564
4051 1217
4051 4476
4051 3530
4051 2546
4051 2448
4051 1921
4051 3079
4051 3564
1217 4476
1217 3530
1217 2546
1217 2448
1217 1921
1217 3079
1217 3564
4476 3530
4476 2546
4476 2448
4476 1921
4476 3079
4476 3564
3530 2546
3530 2448
3530 1921
3530 3079
3530 3564
2546 2448
2546 1921
2546 3079
2546 3564
2448 1921
2448 3079
2448 3564
1921 3079
1921 3564
3079 3564
5252 3838
5653 4877
5653 3546
5653 4828
5653 3063
4877 3546
4877 3063
3546 4828
4828 3063
1616 4967
1616 5089
1616 71
1616 2242
1616 5595
1616 4864
1616 5133
1616 3761
1616 5297
1616 4156
1616 5030
1616 321
1616 2692
4967 5089
4967 71
4967 2242
4967 5595
4967 4864
4967 5133
4967 3761
4967 5297
4967 4156
4967 5030
4967 321
4967 2692
5089 71
5089 2242
5089 5595
5089 4864
5089 5133
5089 3761
5089 5297
5089 4156
5089 5030
5089 321
5089 2692
71 2242
71 5595
71 4864
71 5133
71 3761
71 5297
71 4156
71 5030
71 321
71 2692
2242 5595
2242 4864
2242 5133
2242 3761
2242 5297
2242 4156
2242 5030
2242 321
2242 2692
2242 2685
2242 1466
2242 2079
2242 2536
2242 4448
2242 3950
2242 1868
2242 2397
2242 3020
5595 4864
5595 5133
5595 3761
5595 5297
5595 4156
5595 5030
5595 321
5595 2692
4864 5133
4864 3761
4864 5297
4864 4156
4864 5030
4864 321
4864 2692
5133 3761
5133 5297
5133 4156
5133 5030
3761 5297
3761 4156
3761 5030
3761 321
3761 2692
5297 4156
5297 5030
5297 321
5297 2692
4156 5030
4156 321
4156 2692
5030 321
5030 2692
321 2692
5325 4508
5325 3105
1456 5473
2764 3209
3876 4334
1312 636
5357 3615
1903 4522
4522 5259
4522 4701
4522 2293
4522 1570
4522 2274
1974 957
1974 1827
1974 2894
1974 1526
1974 618
1974 1732
957 1827
957 2894
957 1526
957 618
957 1732
1827 2894
1827 1526
1827 618
1827 1732
2894 1526
2894 618
2894 1732
1526 618
1526 1732
618 1732
1457 4750
4750 4691
1409 1276
1409 4458
1276 4458
3139 4109
3139 3257
4109 3257
1546 3792
1546 3045
3792 3045
3792 4322
3846 2097
4416 2176
4416 2990
4416 1206
4416 5588
2176 2990
2176 1206
2176 5588
2990 1206
2990 5588
1206 5588
1237 2887
4186 4865
2656 171
2656 2185
2656 5314
171 2185
171 5314
171 4684
612 278
612 1992
278 1992
2185 5314
2185 4684
4250 276
4250 1580
4250 5317
276 1580
276 5317
1580 5317
5314 4684
4640 4699
4640 2746
4640 5432
4640 3584
4699 5432
4699 2746
5432 2746
5432 3584
2746 3584
5591 188
5591 4840
188 4840
3835 1828
3835 4664
3835 2891
3835 3599
3835 2103
1828 4664
1828 2891
1828 2791
1828 4988
1828 3253
1828 2974
1828 3029
1828 3599
4664 3663
4664 3253
4664 3282
4664 2791
4664 3029
4664 2103
4664 2891
4664 4988
4664 2974
3663 3253
3253 3282
3253 2891
3253 3599
3253 3029
2891 2791
2891 4988
2891 2103
2891 3029
2891 2974
2891 3599
3282 2791
2791 3599
4988 3599
4988 3029
2103 3029
2103 2974
3029 3599
2974 3599
4666 4270
4666 3220
4666 1640
4666 3174
4666 2341
4666 3097
4666 5195
4666 697
4666 3214
4666 136
4666 4211
4666 75
4666 2356
4666 2935
4666 238
4666 1545
4666 2549
4666 844
4666 3142
4666 729
4666 4711
4270 3220
4270 1640
4270 3174
4270 2341
4270 3097
4270 5195
4270 697
4270 3214
4270 136
4270 4211
4270 75
4270 2356
4270 2935
4270 238
4270 1545
4270 2549
4270 844
4270 3142
4270 729
4270 4711
3220 1640
3220 3174
3220 2341
3220 5195
1640 3174
1640 2341
1640 3097
1640 5195
3174 3097
2341 3097
3097 5195
2903 3091
2903 3035
2903 519
2903 5603
2903 4637
2903 2205
3091 3035
3091 519
3091 5603
3035 519
3035 5603
3035 4637
3035 2205
519 5603
519 4637
519 2205
5603 4637
5603 2205
473 5583
473 5656
3868 3123
3868 1918
3868 2435
3868 2028
3123 1918
3123 2435
3123 2028
1918 2435
1918 2028
2435 2028
375 744
375 4774
375 1675
375 1440
375 570
375 5368
375 3731
375 5407
375 3650
375 4643
375 2105
375 4105
744 4774
744 1680
744 1440
744 570
744 5368
744 3731
744 5407
744 3650
744 4643
744 2105
744 4105
4774 1680
4774 1675
1680 1675
1680 1440
1680 570
1680 5368
1680 3731
1680 5407
1680 3650
1680 4643
1680 2105
1680 4105
1675 1440
1675 570
1675 5368
1675 3731
1675 5407
1675 3650
1675 4643
1675 2105
1675 4105
5688 5334
5688 181
4195 4358
4195 1412
4195 2664
4195 82
4195 3400
4195 3283
4195 5359
4195 5360
4195 5156
4195 3656
4195 2857
4195 3554
4195 1518
4195 3518
4195 1362
4358 1412
4358 2664
4358 82
4358 3400
4358 3624
4358 5260
4358 1362
4358 4709
1412 2664
1412 82
1412 3400
1412 3624
1412 5260
1412 1362
1412 4709
2664 82
2664 3400
2664 3624
2664 5260
2664 1362
2664 4709
82 3400
82 3624
82 5260
82 4709
82 3283
82 5359
82 5360
82 5156
82 3656
82 2857
82 3554
82 1518
82 3518
3400 3624
3400 5260
3400 4709
3400 3283
3400 5359
3400 5360
3400 5156
3400 3656
3400 2857
3400 3554
3400 1518
3400 3518
3624 3283
3624 5359
3624 5360
3624 5156
3624 3656
3624 2857
3624 3554
3624 1518
3624 3518
3624 1362
5260 3283
5260 5359
5260 5360
5260 5156
5260 3656
5260 2857
5260 3554
5260 1518
5260 3518
5260 1362
4079 283
2809 2611
2809 2737
2809 2149
2809 1853
2809 1092
2809 4419
2809 2827
2809 295
2809 4050
2809 613
2809 2846
2611 2737
2611 2149
2611 1853
2611 1092
2611 4419
2611 2827
2611 295
2611 4050
2611 613
2611 2846
2737 2149
2737 1853
2737 1092
2737 4419
2737 2827
2737 295
2737 4050
2737 613
2737 2846
2149 1853
2149 1092
2149 4419
2149 2827
2149 295
2149 4050
2149 613
2149 2846
1853 1092
1853 4419
1853 2827
1853 295
1853 4050
1853 613
1853 2846
1092 4419
1092 2827
1092 295
1092 4050
1092 613
1092 2846
4419 2827
4419 295
4050 613
4050 2846
613 2846
4709 3283
4709 5359
4709 5360
4709 5156
4709 3656
4709 2857
4709 3554
4709 1518
4709 3518
4709 1362
3283 5359
3283 5360
3283 1362
5359 5360
5359 1362
5360 1362
5156 3656
5156 2857
5156 1362
3656 2857
3656 1362
2857 1362
3847 4455
3554 1518
3554 3518
3554 1362
1518 3518
1518 1362
3518 1362
3423 2399
3423 2792
3423 5041
3423 2684
3423 1619
3423 2745
3423 4197
3423 5319
3423 4740
2399 2792
2399 5041
2399 2684
2399 1619
2399 2745
2399 4197
2399 5319
2399 4740
2792 5041
2792 2684
5041 2684
5025 5002
2788 5174
2788 2178
5174 2178
3813 2268
3813 2949
2268 2949
1002 3788
1002 3452
1002 4581
3788 3452
3788 4581
3429 3505
3429 4368
3429 3666
3505 1129
2571 5437
2571 1642
2571 902
2571 2111
5437 902
5437 2111
1695 3319
1695 776
3319 776
4368 1129
3666 1129
2089 831
2427 1329
3501 4905
3501 1979
3501 3087
3501 2405
3501 4134
4905 1979
4905 3087
4905 2405
4905 4134
2516 3471
1416 4603
4603 4317
2858 8
3332 3233
3332 1793
3233 1793
5564 5711
5711 529
5711 802
3871 2237
3871 4171
3871 5412
3871 902
3871 4421
2237 1463
2237 123
2237 2922
2237 4641
2237 5507
2237 5122
2237 241
4171 5412
4171 3702
2106 1145
2106 3679
2106 4155
1145 3679
3679 4155
2009 3562
2009 1562
3562 1562
3341 4630
1028 5381
1028 5058
1028 1907
1028 5683
1028 1932
1028 5549
1028 1623
1028 5459
1028 510
1028 2011
1028 1052
5381 5058
5381 1907
5381 5683
5381 1932
5381 5549
5381 1623
5381 5459
5381 510
5381 2011
5381 1052
5058 1907
5058 5683
5058 1932
5058 5549
5058 1623
5058 5459
5058 510
5058 2011
5058 1052
1907 5683
1907 1932
1907 5549
1907 1623
1907 5459
1907 510
1907 2011
1907 1052
5683 1932
5683 5549
5683 1623
5683 5459
5683 510
5683 2011
5683 1052
1932 5549
1932 1623
1932 5459
1932 510
1932 2011
1932 1052
5549 1623
5549 5459
5549 510
5549 2011
5549 1052
1623 5459
1623 510
1623 2011
1623 1052
5459 510
5459 2011
5459 1052
510 2011
510 1052
2011 1052
2596 3844
2596 5408
2596 5096
3844 5408
3844 5096
5408 5096
1619 2745
2745 4197
5319 4740
902 2111
902 5507
902 5122
902 241
4421 3702
4421 2923
3702 2411
497 2326
497 2101
497 1313
497 5635
497 2305
2326 2101
2326 1313
953 4791
1313 5635
1280 4102
925 1747
925 1837
925 312
925 832
925 5270
925 3285
925 4285
925 2180
925 4290
925 3334
925 4369
925 4194
925 462
925 769
925 1855
925 1684
925 3754
925 1286
925 722
925 1783
925 3817
925 916
925 5500
925 1720
925 5492
925 1689
1683 1829
3596 2440
3596 2372
2440 2372
2440 5642
2440 1186
1718 1369
1369 445
1369 5507
5507 1463
5507 123
5507 2922
5507 4641
5507 5122
5507 241
5507 2111
3452 3962
3452 1133
3452 5033
3452 5474
3452 35
3452 3367
3452 634
3452 4311
3452 4335
3452 4581
3452 757
3962 1133
3962 5033
3962 4335
1133 5033
1133 4335
5039 4506
5039 4267
5039 4158
4357 285
899 1567
899 3393
899 2019
660 1339
3508 4332
3508 1246
4332 1246
4332 2325
4332 4597
4332 2629
4332 68
1246 4781
4143 1200
4143 5675
1200 5675
5569 4116
5569 3919
5569 1657
5569 395
5569 3037
5569 4288
4116 3919
4116 1657
4116 395
4116 3037
4116 4288
3919 1657
3919 395
3919 3037
3919 4288
1657 395
1657 3037
1657 4288
395 3037
395 4288
3037 4288
3459 5054
3459 5682
3459 3996
5054 5682
5054 3996
5682 3996
1854 5598
1854 5007
5598 5007
5598 4972
5007 4972
139 386
139 1088
139 3038
386 1088
386 3038
386 4022
1088 4022
3600 3346
3600 3819
3600 5095
3038 4022
606 5435
5672 1770
2441 3465
2441 1755
3465 1755
1931 2413
2763 5049
5049 3659
915 3309
915 1791
915 333
915 2583
915 4566
915 5707
915 2116
915 5513
3309 1791
333 2583
4566 5707
2116 5513
2325 4597
2325 2629
2325 68
4597 2629
4597 68
2629 68
4442 903
1878 19
5059 4252
4842 4057
4842 642
4842 1880
4842 4345
4057 642
4057 4217
4057 3881
4057 1880
4057 4345
642 4217
642 3881
4616 1662
4616 4651
1463 123
1463 2922
1463 4641
1463 5122
1463 241
123 2922
123 4641
123 5122
123 241
2922 4641
2922 5122
2922 241
2922 4658
4641 5122
4641 241
5122 2111
3852 1824
3852 2104
1824 2104
1824 1753
1824 4602
1824 2201
1824 2811
1824 152
1824 1973
1824 4826
1824 3814
1824 1125
1824 861
1824 1941
1824 3690
1824 2490
1824 2298
1824 1155
2104 1753
2104 4602
2104 2201
2104 2811
2104 152
2104 1973
2104 4826
2104 3814
2104 1125
2104 861
2104 1941
2104 3690
2104 2490
2104 2298
2104 1155
2810 5095
2810 2524
5095 2524
5095 3582
5095 1813
5095 3274
5095 575
5095 3819
5095 4457
5095 1045
5095 3211
2524 3582
2524 1813
2524 3211
441 4748
914 558
914 526
914 5563
914 2365
914 4614
558 526
558 5563
526 5563
5563 2817
5563 3990
5563 738
5563 2433
5563 5565
5563 2365
5563 4614
5563 4721
5563 1156
3910 5298
2817 3990
2817 3572
3990 3572
5474 35
5474 3367
5474 634
5474 4311
35 3367
3367 634
3367 4311
738 2433
738 5565
2433 5565
3274 575
241 2111
2365 4614
1563 4426
1563 4457
1563 4882
4426 4457
4426 4882
4426 4089
4426 3819
4426 2197
4426 2046
4457 4882
4457 4089
4457 2046
4457 1045
4089 3819
4089 2197
3819 2197
3819 2046
4721 1156
1343 5200
1343 4430
1343 273
1343 932
1343 3629
5200 4430
5200 273
5200 932
5200 3629
4430 273
4430 932
4430 3629
273 932
273 3629
273 2385
273 757
932 3629
3629 2385
3629 757
4581 757
757 2385
348 5503
348 5119
5503 5119
5503 313
5119 313
5480 1344
2108 3886
2108 3917
2108 1501
2108 1178
3886 3917
3886 1501
3917 1501
3917 1178
1501 1178
3246 3329
3246 880
3329 880
4083 2024
3238 4674
3238 388
3238 2975
4674 388
4674 2649
4674 4081
388 2649
388 4081
388 2975
2649 2975
5341 4031
5341 5228
5341 759
5341 571
5341 5364
5341 1548
5341 432
4031 5228
4031 759
4031 571
4031 5364
4031 1548
4031 432
5228 759
5228 571
5228 5364
5228 1548
5228 432
759 571
759 5364
759 1548
759 432
571 5364
571 1548
571 432
5364 1548
5364 432
1548 432
4525 1586
4525 3145
1586 3145
2685 1466
2685 2079
2685 2536
2685 4448
2685 3950
2685 1868
1466 2079
1466 2536
1466 4448
1466 3950
1466 1868
2079 2536
2079 4448
2079 3950
2079 1868
2536 4448
2536 3950
2536 1868
4448 3950
4448 1868
3950 1868
3950 2397
3950 3020
1868 2397
1868 3020
3020 2397
3524 5113
3524 5115
3524 2617
3524 1818
3524 1336
3524 793
3524 2446
3524 1920
3524 3594
3524 920
3524 4545
3524 4239
3524 205
3524 3384
3524 585
3524 207
3524 981
3524 29
3524 4909
3524 2517
3524 4436
3524 2521
3524 4743
3524 4744
3524 481
3524 4018
3524 730
5113 5115
5113 2617
5113 1818
5115 2617
5115 1818
5115 1336
5115 793
5115 2446
5115 1920
5115 3594
5115 920
5115 4545
5115 4239
5115 205
5115 3384
5115 585
5115 207
5115 981
5115 29
5115 4909
5115 2517
5115 4436
5115 2521
5115 4743
5115 4744
5115 481
5115 4018
5115 730
2617 1818
2617 4893
2617 1209
2617 1431
2617 1336
2617 4032
2617 1170
2617 5139
2617 1085
2617 2228
2617 2722
2617 5492
2617 3285
2617 4285
2617 2180
2617 4998
2617 4144
2617 5560
2617 672
2617 1118
2617 4013
2617 900
2617 949
2617 1783
2617 2783
2617 1876
2617 832
2617 5079
2617 2225
2617 199
2617 3334
2617 1684
2617 1110
2617 3754
2617 3927
2617 1207
2617 793
2617 2446
2617 1920
2617 3594
2617 920
2617 4545
2617 4239
2617 205
2617 3384
2617 585
2617 207
2617 981
2617 29
2617 4909
2617 2517
2617 4436
2617 2521
2617 4743
2617 4744
2617 481
2617 4018
2617 730
1818 1336
5101 2916
1347 394
697 3214
697 136
697 4211
697 75
697 2356
697 2935
697 238
697 1545
697 2549
697 844
697 3142
697 729
697 4711
3214 136
3214 4211
3214 75
3214 2356
3214 2935
3214 238
3214 1545
3214 2549
3214 844
3214 3142
3214 729
3214 4711
136 4211
136 75
136 2356
136 2935
136 238
136 1545
136 2549
136 844
136 3142
136 729
136 4711
4211 75
4211 2356
4211 2935
4211 238
4211 1545
4211 2549
4211 844
4211 3142
4211 729
4211 4711
75 2356
75 2935
75 238
75 1545
75 2549
75 844
75 3142
75 729
75 4711
2356 2935
2356 238
2356 1545
2356 2549
2356 844
2356 3142
2356 729
2356 4711
2935 238
2935 1545
2935 2549
2935 844
2935 3142
2935 729
2935 4711
238 1545
238 2549
238 844
238 3142
238 729
238 4711
1545 2549
1545 844
1545 3142
1545 729
1545 4711
2549 844
2549 3142
2549 729
2549 4711
844 3142
844 729
844 4711
3142 729
3142 4711
729 4711
4841 4260
4841 247
4841 44
4841 1888
4260 247
4260 44
247 1888
2547 3727
2547 635
3727 635
44 1888
884 1876
884 949
884 2783
884 4285
884 672
884 4998
884 1118
884 1085
1876 949
1876 2783
1876 4285
1876 672
1876 4998
1876 1118
1876 1085
1876 4032
1876 1209
1876 1170
1876 5139
1876 2228
1876 2722
1876 4893
1876 5492
1876 3285
1876 2180
1876 4144
1876 5560
1876 4013
1876 900
1876 1783
1876 1431
1876 832
1876 5079
1876 2225
1876 199
1876 3334
1876 1684
1876 1110
1876 3754
1876 3927
1876 1207
949 2783
949 4285
949 672
949 4998
949 1118
949 1085
949 4032
949 1209
949 1170
949 5139
949 2228
949 2722
949 4893
949 5492
949 3285
949 2180
949 4144
949 5560
949 4013
949 900
949 1783
949 1431
949 832
949 5079
949 2225
949 199
949 3334
949 1684
949 1110
949 3754
949 3927
949 1207
2783 4285
2783 672
2783 4998
2783 1118
2783 1085
2783 4032
2783 1209
2783 1170
2783 5139
2783 2228
2783 2722
2783 4893
2783 5492
2783 3285
2783 2180
2783 4144
2783 5560
2783 4013
2783 900
2783 1783
2783 1431
2783 832
2783 5079
2783 2225
2783 199
2783 3334
2783 1684
2783 1110
2783 3754
2783 3927
2783 1207
4285 672
4285 4998
4285 1118
4285 1085
4285 4032
4285 1209
4285 1170
4285 5139
4285 2228
4285 2722
4285 4893
4285 5492
4285 3285
4285 2180
4285 4144
4285 5560
4285 4013
4285 900
4285 1783
4285 1431
4285 832
4285 5079
4285 2225
4285 199
4285 3334
4285 1684
4285 1110
4285 3754
4285 3927
4285 1207
4285 4938
4285 4290
4285 4369
4285 462
4285 1855
4285 2816
4285 722
4285 856
4285 2567
4285 1747
4285 4098
4285 4194
4285 1035
4285 4584
4285 769
4285 987
4285 1286
4285 312
4285 5352
4285 2807
4285 808
4285 1279
4285 4380
4285 3537
4285 4654
4285 1837
4285 5270
4285 3817
4285 916
4285 5500
4285 1720
4285 1689
4285 1023
4285 511
672 4998
672 1118
672 1085
672 4032
672 1209
672 1170
672 5139
672 2228
672 2722
672 4893
672 5492
672 3285
672 2180
672 4144
672 5560
672 4013
672 900
672 1783
672 1431
672 832
672 5079
672 2225
672 199
672 3334
672 1684
672 1110
672 3754
672 3927
672 1207
4998 1118
4998 1085
4998 4032
4998 1209
4998 1170
4998 5139
4998 2228
4998 2722
4998 4893
4998 5492
4998 3285
4998 2180
4998 4144
4998 5560
4998 4013
4998 900
4998 1783
4998 1431
4998 832
4998 5079
4998 2225
4998 199
4998 3334
4998 1684
4998 1110
4998 3754
4998 3927
4998 1207
1118 1085
1118 4032
1118 1209
1118 1170
1118 5139
1118 2228
1118 2722
1118 4893
1118 5492
1118 3285
1118 2180
1118 4144
1118 5560
1118 4013
1118 900
1118 1783
1118 1431
1118 832
1118 5079
1118 2225
1118 199
1118 3334
1118 1684
1118 1110
1118 3754
1118 3927
1118 1207
1085 4032
1085 1209
1085 1170
1085 5139
1085 2228
1085 2722
1085 4893
1085 5492
1085 3285
1085 2180
1085 4144
1085 5560
1085 4013
1085 900
1085 1783
1085 1431
1085 832
1085 5079
1085 2225
1085 199
1085 3334
1085 1684
1085 1110
1085 3754
1085 3927
1085 1207
1 3883
1 2638
1 1113
1 4391
1 1887
1 5540
1 5691
1 4615
3883 2638
3883 1113
3883 4391
3883 1887
3883 5540
3883 5691
3883 4615
2638 1113
2638 4391
2638 1887
2638 5540
2638 5691
2638 4615
1113 4391
1113 1887
1113 5540
1113 5691
1113 4615
4391 1887
4391 5540
4391 5691
4391 4615
1887 5540
1887 5691
1887 4615
5540 5691
5540 4615
5691 4615
4893 1209
4893 1431
4893 4032
4893 1170
4893 5139
4893 2228
4893 2722
4893 5492
4893 3285
4893 2180
4893 4144
4893 5560
4893 4013
4893 900
4893 1783
4893 832
4893 5079
4893 2225
4893 199
4893 3334
4893 1684
4893 1110
4893 3754
4893 3927
4893 1207
1209 1431
1209 4032
1209 1170
1209 5139
1209 2228
1209 2722
1209 5492
1209 3285
1209 2180
1209 4144
1209 5560
1209 4013
1209 900
1209 1783
1209 832
1209 5079
1209 2225
1209 199
1209 3334
1209 1684
1209 1110
1209 3754
1209 3927
1209 1207
1431 4032
1431 1170
1431 5139
1431 2228
1431 2722
1431 5492
1431 3285
1431 2180
1431 4144
1431 5560
1431 4013
1431 900
1431 1783
1431 832
1431 5079
1431 2225
1431 199
1431 3334
1431 1684
1431 1110
1431 3754
1431 3927
1431 1207
4001 4144
4001 5492
4001 4032
4001 1855
4001 3285
4001 1783
4001 2180
4144 5492
4144 4032
4144 1855
4144 3285
4144 1783
4144 2180
4144 1170
4144 5139
4144 2228
4144 2722
4144 5560
4144 4013
4144 900
4144 832
4144 5079
4144 2225
4144 199
4144 3334
4144 1684
4144 1110
4144 3754
4144 3927
4144 1207
5492 4032
5492 1855
5492 3285
5492 1783
5492 2180
5492 1170
5492 5139
5492 2228
5492 2722
5492 5560
5492 4013
5492 900
5492 832
5492 5079
5492 2225
5492 199
5492 3334
5492 1684
5492 1110
5492 3754
5492 3927
5492 1207
5492 4938
5492 4290
5492 4369
5492 462
5492 2816
5492 722
5492 856
5492 2567
5492 1747
5492 4098
5492 4194
5492 1035
5492 4584
5492 769
5492 987
5492 1286
5492 312
5492 5352
5492 2807
5492 808
5492 1279
5492 4380
5492 3537
5492 4654
5492 1837
5492 3817
5492 916
5492 5500
5492 1720
5492 1689
4032 1855
4032 3285
4032 1783
4032 2180
4032 1170
4032 5139
4032 2228
4032 2722
4032 5560
4032 4013
4032 900
4032 832
4032 5079
4032 2225
4032 199
4032 3334
4032 1684
4032 1110
4032 3754
4032 3927
4032 1207
1855 3285
1855 1783
1855 2180
1855 4938
1855 832
1855 5079
1855 2225
1855 199
1855 4290
1855 3334
1855 4369
1855 462
1855 1684
1855 2816
1855 1110
1855 3754
1855 722
1855 856
1855 3927
1855 2567
1855 1207
1855 1747
1855 4098
1855 4194
1855 1035
1855 4584
1855 769
1855 987
1855 1286
1855 312
1855 5352
1855 2807
1855 808
1855 1279
1855 4380
1855 3537
1855 4654
1855 1837
1855 5270
1855 3817
1855 916
1855 5500
1855 1720
1855 1689
1855 1023
1855 511
3285 1783
3285 2180
3285 1170
3285 5139
3285 2228
3285 2722
3285 5560
3285 4013
3285 900
3285 832
3285 5079
3285 2225
3285 199
3285 3334
3285 1684
3285 1110
3285 3754
3285 3927
3285 1207
3285 4938
3285 4290
3285 4369
3285 462
3285 2816
3285 722
3285 856
3285 2567
3285 1747
3285 4098
3285 4194
3285 1035
3285 4584
3285 769
3285 987
3285 1286
3285 312
3285 5352
3285 2807
3285 808
3285 1279
3285 4380
3285 3537
3285 4654
3285 1837
3285 5270
3285 3817
3285 916
3285 5500
3285 1720
3285 1689
3285 1023
3285 511
1783 2180
1783 1170
1783 5139
1783 2228
1783 2722
1783 5560
1783 4013
1783 900
1783 832
1783 5079
1783 2225
1783 199
1783 3334
1783 1684
1783 1110
1783 3754
1783 3927
1783 1207
1783 4938
1783 4290
1783 4369
1783 462
1783 2816
1783 722
1783 856
1783 2567
1783 1747
1783 4098
1783 4194
1783 1035
1783 4584
1783 769
1783 987
1783 1286
1783 312
1783 5352
1783 2807
1783 808
1783 1279
1783 4380
1783 3537
1783 4654
1783 1837
1783 5270
1783 3817
1783 916
1783 5500
1783 1720
1783 1689
1783 1023
1783 511
2180 1170
2180 5139
2180 2228
2180 2722
2180 5560
2180 4013
2180 900
2180 832
2180 5079
2180 2225
2180 199
2180 3334
2180 1684
2180 1110
2180 3754
2180 3927
2180 1207
2180 4938
2180 4290
2180 4369
2180 462
2180 2816
2180 722
2180 856
2180 2567
2180 1747
2180 4098
2180 4194
2180 1035
2180 4584
2180 769
2180 987
2180 1286
2180 312
2180 5352
2180 2807
2180 808
2180 1279
2180 4380
2180 3537
2180 4654
2180 1837
2180 5270
2180 3817
2180 916
2180 5500
2180 1720
2180 1689
2180 1023
2180 511
1336 793
1336 2446
1336 1920
1336 3594
1336 920
1336 4545
1336 4239
1336 205
1336 3384
1336 585
1336 207
1336 981
1336 29
1336 4909
1336 2517
1336 4436
1336 2521
1336 4743
1336 4744
1336 481
1336 4018
1336 730
1170 5139
1170 2228
1170 2722
1170 5560
1170 4013
1170 900
1170 832
1170 5079
1170 2225
1170 199
1170 3334
1170 1684
1170 1110
1170 3754
1170 3927
1170 1207
5139 2228
5139 2722
5139 5560
5139 4013
5139 900
5139 832
5139 5079
5139 2225
5139 199
5139 3334
5139 1684
5139 1110
5139 3754
5139 3927
5139 1207
2228 2722
2228 5560
2228 4013
2228 900
2228 832
2228 5079
2228 2225
2228 199
2228 3334
2228 1684
2228 1110
2228 3754
2228 3927
2228 1207
2722 5560
2722 4013
2722 900
2722 832
2722 5079
2722 2225
2722 199
2722 3334
2722 1684
2722 1110
2722 3754
2722 3927
2722 1207
5560 4013
5560 900
5560 832
5560 5079
5560 2225
5560 199
5560 3334
5560 1684
5560 1110
5560 3754
5560 3927
5560 1207
4013 900
4013 832
4013 5079
4013 2225
4013 199
4013 3334
4013 1684
4013 1110
4013 3754
4013 3927
4013 1207
900 832
900 5079
900 2225
900 199
900 3334
900 1684
900 1110
900 3754
900 3927
900 1207
832 5079
832 2225
832 967
832 199
832 4679
832 3334
832 1141
832 4108
832 1684
832 1110
832 3754
832 856
832 3927
832 1207
832 4938
832 4290
832 4369
832 462
832 2816
832 722
832 2567
832 1747
832 4098
832 4194
832 1035
832 4584
832 769
832 987
832 1286
832 312
832 5352
832 2807
832 808
832 1279
832 4380
832 3537
832 4654
832 1837
832 5270
832 3817
832 916
832 5500
832 1720
832 1689
832 1023
832 511
832 1469
832 2993
5079 2225
5079 967
5079 199
5079 4679
5079 3334
5079 1141
5079 4108
5079 1684
5079 1110
5079 3754
5079 856
5079 3927
5079 1207
5079 4938
5079 4290
5079 4369
5079 462
5079 2816
5079 722
5079 2567
5079 1747
5079 4098
5079 4194
5079 1035
5079 4584
5079 769
5079 987
5079 1286
5079 312
5079 1469
5079 2993
2225 967
2225 199
2225 4679
2225 3334
2225 1141
2225 4108
2225 1684
2225 1110
2225 3754
2225 856
2225 3927
2225 1207
2225 4938
2225 4290
2225 4369
2225 462
2225 2816
2225 722
2225 2567
2225 1747
2225 4098
2225 4194
2225 1035
2225 4584
2225 769
2225 987
2225 1286
2225 312
2225 1469
2225 2993
967 199
967 4679
967 3334
967 1141
967 4108
967 1684
967 1110
967 3754
967 856
967 3927
967 1207
199 4679
199 3334
199 1141
199 4108
199 1684
199 1110
199 3754
199 856
199 3927
199 1207
199 4938
199 4290
199 4369
199 462
199 2816
199 722
199 2567
199 1747
199 4098
199 4194
199 1035
199 4584
199 769
199 987
199 1286
199 1469
199 2993
4679 3334
4679 1141
4679 4108
4679 1684
4679 1110
4679 3754
4679 856
4679 3927
4679 1207
3334 1141
3334 4108
3334 1684
3334 1110
3334 3754
3334 856
3334 3927
3334 1207
3334 4938
3334 4290
3334 4369
3334 462
3334 2816
3334 722
3334 2567
3334 1747
3334 4098
3334 4194
3334 1035
3334 4584
3334 769
3334 987
3334 1286
3334 312
3334 5352
3334 2807
3334 808
3334 1279
3334 4380
3334 3537
3334 4654
3334 1837
3334 5270
3334 3817
3334 916
3334 5500
3334 1720
3334 1689
3334 1023
3334 511
1141 4108
1141 1684
1141 1110
1141 3754
1141 856
1141 3927
1141 1207
4108 1684
4108 1110
4108 3754
4108 856
4108 3927
4108 1207
1684 1110
1684 3754
1684 856
1684 3927
1684 1207
1684 4938
1684 4290
1684 4369
1684 462
1684 2816
1684 722
1684 2567
1684 1747
1684 4098
1684 4194
1684 1035
1684 4584
1684 769
1684 987
1684 1286
1684 312
1684 5352
1684 2807
1684 808
1684 1279
1684 4380
1684 3537
1684 4654
1684 1837
1684 5270
1684 3817
1684 916
1684 5500
1684 1720
1684 1689
1684 1023
1684 511
1684 1469
1684 2993
1110 3754
1110 856
1110 3927
1110 1207
1110 4938
1110 4290
1110 4369
1110 462
1110 2816
1110 722
1110 2567
1110 1747
1110 4098
1110 4194
1110 1035
1110 4584
1110 769
1110 987
1110 1286
1110 1469
1110 2993
3754 856
3754 3927
3754 1207
3754 4938
3754 4290
3754 4369
3754 462
3754 2816
3754 722
3754 2567
3754 1747
3754 4098
3754 4194
3754 1035
3754 4584
3754 769
3754 987
3754 1286
3754 312
3754 5352
3754 2807
3754 808
3754 1279
3754 4380
3754 3537
3754 4654
3754 1837
3754 5270
3754 3817
3754 916
3754 5500
3754 1720
3754 1689
3754 1023
3754 511
3754 1469
3754 2993
856 3927
856 1207
856 4938
856 4290
856 4369
856 462
856 2816
856 722
856 2567
856 1747
856 4098
856 4194
856 1035
856 4584
856 769
856 987
856 1286
856 312
856 1469
856 2993
3927 1207
3927 4938
3927 4290
3927 4369
3927 462
3927 2816
3927 722
3927 2567
3927 1747
3927 4098
3927 4194
3927 1035
3927 1469
3927 2993
1207 4938
1207 4290
1207 4369
1207 462
1207 2816
1207 722
1207 2567
1207 1747
1207 4098
1207 4194
1207 1035
1207 4584
1207 769
1207 987
1207 1286
1207 312
1207 1469
1207 2993
4938 4290
4938 4369
4938 462
4938 2816
4938 722
4938 2567
4938 1747
4938 4098
4938 4194
4938 1035
4290 4369
4290 462
4290 2816
4290 722
4290 2567
4290 1747
4290 4098
4290 4194
4290 1035
4290 4584
4290 769
4290 987
4290 1286
4290 312
4290 5352
4290 2807
4290 808
4290 1279
4290 4380
4290 3537
4290 4654
4290 1837
4290 5270
4290 3817
4290 916
4290 5500
4290 1720
4290 1689
4290 1023
4290 511
4369 462
4369 2816
4369 722
4369 2567
4369 1747
4369 4098
4369 4194
4369 1035
4369 4584
4369 769
4369 987
4369 1286
4369 312
4369 5352
4369 2807
4369 808
4369 1279
4369 4380
4369 3537
4369 4654
4369 1837
4369 5270
4369 3817
4369 916
4369 5500
4369 1720
4369 1689
4369 1023
4369 511
4369 5490
4369 1265
4369 4738
4369 1163
462 2816
462 722
462 2567
462 1747
462 4098
462 4194
462 1035
462 4584
462 769
462 987
462 1286
462 312
462 5352
462 2807
462 808
462 1279
462 4380
462 3537
462 4654
462 1837
462 5270
462 3817
462 916
462 5500
462 1720
462 1689
462 1023
462 511
2816 722
2816 2567
2816 1747
2816 4098
2816 4194
2816 1035
2816 4584
2816 769
2816 987
2816 1286
722 2567
722 1747
722 4098
722 4194
722 1035
722 4584
722 769
722 987
722 1286
722 312
722 5352
722 2807
722 808
722 1279
722 4380
722 3537
722 4654
722 1837
722 5270
722 3817
722 916
722 5500
722 1720
722 1689
722 1023
722 511
1924 5648
1924 1163
5648 1163
1163 5490
1163 1265
1163 4738
1747 4098
1747 4194
1747 1035
1747 4584
1747 769
1747 987
1747 1286
1747 312
1747 5352
1747 2807
1747 808
1747 1279
1747 4380
1747 3537
1747 4654
1747 1837
1747 5270
1747 3817
1747 916
1747 5500
1747 1720
1747 1689
4098 4194
4098 1035
4194 1035
4194 4584
4194 769
4194 987
4194 1286
4194 312
4194 5352
4194 2807
4194 808
4194 1279
4194 4380
4194 3537
4194 4654
4194 1837
4194 5270
4194 3817
4194 916
4194 5500
4194 1720
4194 1689
1035 4584
1035 769
1035 987
1035 1286
1035 312
1911 4583
1911 4926
1911 1351
4583 1011
4583 3670
4584 769
4584 987
4584 1286
4584 312
769 987
769 1286
769 312
769 5352
769 2807
769 808
769 1279
769 4380
769 3537
769 4654
769 1837
769 5270
769 3817
769 916
769 5500
769 1720
769 1689
769 1023
769 511
987 1286
987 312
1286 312
1286 5352
1286 2807
1286 808
1286 1279
1286 4380
1286 3537
1286 4654
1286 1837
1286 5270
1286 3817
1286 916
1286 5500
1286 1720
1286 1689
1286 1023
1286 511
312 5352
312 2807
312 808
312 1279
312 4380
312 3537
312 4654
312 1837
312 5270
312 3817
312 916
312 5500
312 1720
312 1689
312 1023
312 511
1571 2768
1571 2612
1571 5421
1571 4
1571 4042
1571 5027
1571 2302
2768 2612
2768 5421
2768 4
2768 4042
2768 5027
2768 2302
2612 5421
2612 4
2612 4042
2612 5027
2612 2302
5421 4
5421 4042
5421 5027
5421 2302
4 4042
4 5027
4 2302
4042 5027
4042 2302
5027 2302
3854 4561
3854 230
3854 3802
3854 5514
4561 230
4561 3802
4561 5514
230 3802
230 5514
3802 5514
3668 3325
3668 3533
3325 3533
766 4078
766 3870
766 1667
766 2375
766 617
4078 3870
4078 1667
4078 2375
4078 617
3870 1667
3870 2375
3870 617
1667 2375
1667 617
2375 617
4926 3670
4926 1011
5352 2807
5352 808
5352 1279
5352 4380
5352 3537
5352 4654
2807 808
2807 1279
2807 4380
2807 3537
2807 4654
808 1279
808 4380
808 3537
808 4654
1279 4380
1279 3537
1279 4654
4380 3537
4380 4654
3537 4654
1351 3670
1351 1011
1837 5270
1837 3817
1837 916
1837 5500
1837 1720
1837 1689
5270 3817
5270 916
5270 5500
5270 1720
3817 916
3817 5500
3817 1720
3817 1689
916 5500
916 1720
916 1689
5500 1720
5500 1689
1720 1689
1023 511
2543 20
197 3648
197 1881
197 2729
197 5084
197 1434
3648 1881
3648 2729
3648 5084
3648 1434
1881 2729
1881 5084
1881 1434
2729 5084
2729 1434
5084 1434
1659 2154
1659 1505
2154 1505
5340 4552
5340 771
70 1478
1478 2401
1478 1328
5544 4741
1832 5289
5579 39
5579 3818
39 4131
39 5567
39 2837
4131 3818
3818 2267
3818 1795
3818 2430
1315 4090
1315 5440
1315 1330
4090 2994
1330 2994
5361 1438
5361 2976
5361 1628
1438 2976
1438 1628
2976 1628
5126 501
2281 96
1851 5481
1851 591
5481 591
4188 4536
4188 3370
4536 3370
4761 4619
4619 563
2231 422
2231 3741
422 1063
422 637
422 4736
422 1013
4564 2750
3944 3171
5657 4120
3932 2071
1040 178
1040 2032
1040 4854
178 5453
178 716
5534 2082
3004 4976
4976 352
4976 5064
4976 1530
5508 5206
5508 1622
5508 2542
5206 1622
5206 2542
1622 2542
2032 4854
4854 5008
4854 5453
4854 716
4854 2481
5008 5453
5511 4985
2141 1947
2141 1097
2141 132
2141 1128
2141 3388
2141 5402
2141 2420
2141 2704
2141 3598
1947 1097
1947 132
1947 1128
1947 4925
1947 5402
1947 3388
1947 2420
1947 2704
1947 3598
1097 132
1097 1128
1097 4925
1097 3388
132 1128
132 4925
132 5402
132 3598
1128 4925
1128 5402
1128 3388
1128 2420
1128 2704
1128 3598
4925 5402
4925 2420
4925 2704
4925 3598
4925 3388
1572 3934
1572 3783
1572 79
3934 79
5402 3388
3388 3598
2849 3711
2420 2704
1474 3735
1474 4107
1474 4810
1474 2107
1474 3664
1474 1577
1474 468
1474 5237
1474 1858
1474 5134
1474 64
1474 349
1474 3654
1474 3703
3735 4107
3735 4810
3735 2107
3735 3664
3735 1577
3735 468
3735 5237
3735 1858
3735 5134
3735 64
3735 349
3735 3654
3735 3703
4107 4810
4107 2107
4107 3664
4107 1577
4107 468
4107 5237
4107 1858
4107 5134
4107 64
4107 349
4107 3654
4107 3703
4810 2107
4810 3664
4810 1577
4810 468
4810 5237
4810 1858
4810 5134
4810 64
4810 349
4810 3654
4810 3703
2107 3664
2107 1577
2107 468
2107 5237
2107 1858
2107 5134
2107 64
2107 349
2107 3654
2107 3703
3664 1577
3664 468
3664 5237
3664 1858
3664 5134
3664 64
3664 349
3664 3654
3664 3703
1577 468
1577 5237
1577 1858
1577 5134
1577 64
1577 349
1577 3654
1577 3703
468 5237
468 1858
468 5134
468 64
468 349
468 3654
468 3703
5237 1858
5237 5134
5237 64
5237 349
5237 3654
5237 3703
1858 5134
1858 64
1858 349
1858 3654
1858 3703
5134 64
5134 349
5134 3654
5134 3703
64 349
64 3654
64 3703
349 3654
349 3703
3654 3703
3150 2445
3150 5634
3150 3349
2445 5634
2445 3349
2445 4544
2445 841
2445 569
2445 5704
2445 4117
2445 4125
2445 2581
2445 5472
2445 1500
2445 2072
2445 5373
5634 3349
5634 4544
5634 841
5634 569
5634 5704
5634 4117
5634 4125
5634 2581
5634 5472
5634 1500
5634 2072
5634 5373
3349 4544
3349 841
3349 569
3349 5704
3349 4117
3349 4125
3349 2581
3349 5472
3349 1500
3349 2072
3349 5373
2489 5418
2489 1424
5418 1424
760 2658
4450 4106
4450 622
4450 1782
4450 4291
4106 622
4106 1782
4106 4291
622 1782
622 4291
1782 4291
3224 2931
3224 649
3224 4738
2931 649
649 4738
4738 5490
4738 1265
3606 3984
1489 4146
1671 2927
1671 1101
1671 4725
2927 1101
1101 4725
707 520
707 3099
707 2258
520 3099
520 2258
3099 2258
4857 293
4857 286
293 286
5498 579
5498 2518
5498 2604
5498 4279
5498 3949
579 2518
579 2604
2518 2604
2518 4279
2518 955
2518 3949
2604 4279
2604 3949
4279 3949
955 3949
2002 3080
2002 361
3080 361
112 1954
112 604
112 5504
112 3205
112 3290
112 5658
112 5714
1954 604
1954 5504
1954 3205
1954 3290
1954 5658
1954 5714
604 5504
604 3205
604 3290
604 5658
604 5714
5504 3205
5504 3290
5504 5658
5504 5714
3205 3290
3205 5658
3205 5714
3290 5658
3290 5714
5658 5714
352 5064
352 1530
5064 1530
1597 4809
1597 1243
1597 4569
1597 561
1597 4601
4809 1243
4809 4569
4809 561
4809 4601
1243 4569
1243 561
1243 4601
4569 561
4569 4601
561 4601
3347 4129
1693 5523
1693 2357
1693 3490
1693 329
1693 1833
5523 2357
5523 3490
5523 329
5523 1833
2357 3490
2357 329
2357 1833
2357 4917
2357 971
3490 329
3490 1833
329 1833
2622 942
2622 4272
2622 4070
2622 4571
2622 3904
942 4272
942 4070
942 4571
942 3904
4272 4070
4272 4571
4272 3904
4070 4571
4070 3904
4571 3904
1799 710
5123 5552
5123 3834
5123 3699
5123 1003
5123 153
5123 4261
5552 3834
5552 3699
5552 1003
5552 153
5552 4261
3834 3699
3834 1003
3834 153
3834 4261
3699 1003
3699 153
3699 4261
1003 153
1003 4261
153 4261
2550 1302
2550 289
29 793
29 2446
29 1920
29 3594
29 920
29 4545
29 4239
29 205
29 3384
29 585
29 207
29 981
29 4909
29 2517
29 4436
29 2521
29 4743
29 4744
29 481
29 4018
29 730
4006 2013
4006 5305
3980 1029
3980 5280
3980 3964
3980 1564
3980 2384
3980 1773
3980 550
3980 4773
3980 842
3980 2057
3980 3644
3980 1728
3980 5403
1029 5280
1029 3964
1029 1564
1029 2384
1029 1773
1029 550
1029 4773
1029 842
1029 2057
1029 3644
1029 1728
1029 5403
5280 3964
5280 1564
5280 2384
5280 1773
5280 550
5280 4773
5280 842
5280 2057
5280 3644
5280 1728
5280 3975
5280 5403
5280 4862
5280 978
3964 1564
3964 2384
3964 1773
3964 550
3964 4773
3964 842
3964 2057
3964 3644
3964 1728
3964 3975
3964 5403
3964 4862
3964 978
1564 2384
1564 1773
1564 550
1564 4773
1564 842
1564 2057
1564 3644
1564 1728
1564 5403
2384 1773
2384 550
2384 4773
2384 842
2384 2057
2384 3644
2384 1728
1773 550
1773 4773
1773 842
1773 2057
1773 3644
1773 1728
1773 3975
1773 5403
1773 4862
1773 978
550 4773
550 842
550 2057
550 3644
550 1728
550 3975
550 5403
550 4862
550 978
4773 842
4773 2057
4773 3644
4773 1728
4773 5403
842 2057
842 3644
842 3975
842 5403
842 4862
842 978
2057 3644
2057 1728
2057 5403
3644 1728
3644 5403
149 2442
149 3476
149 5110
2442 3476
2442 299
2442 5110
3476 299
4014 1450
1450 1310
3748 2094
3748 2235
3748 88
3748 3195
3748 4169
2094 2235
2094 88
2094 3195
2094 4169
2235 88
2235 3195
2235 4169
88 3195
88 4169
3195 4169
3975 5403
3975 4862
3975 978
5403 4862
5403 978
4862 978
3713 1598
3713 1785
3713 1352
3713 4242
3713 4278
3713 1765
1598 1785
1598 1352
1598 4242
1598 4278
1598 1765
1785 1352
1785 4242
1785 4278
1785 1765
1352 4242
1352 4278
1352 1765
4242 4278
4242 1765
4278 1765
854 2138
854 1538
854 1796
854 5671
854 5203
854 3800
854 3890
854 5690
854 1058
854 2694
854 5001
2138 1538
2138 1796
2138 5671
2138 5203
2138 3800
2138 3890
2138 5690
2138 1058
2138 2694
1538 1796
1538 5671
1538 5203
1538 3800
1538 3890
1538 5690
1538 1058
1538 2694
1796 5671
1796 5203
1796 3800
1796 3890
1796 5690
1796 1058
1796 2694
5671 5203
5671 3800
5671 3890
5671 5690
5671 1058
5671 2694
5203 3800
5203 3890
5203 5690
5203 1058
5203 2694
3800 3890
3800 5690
3800 1058
3800 2694
3890 5690
3890 1058
3890 2694
5690 1058
5690 2694
1058 2694
474 3418
474 2130
474 698
2986 212
2986 3678
212 3678
1436 1981
1436 4886
1436 5192
1436 910
1436 2416
1436 862
1436 3399
3535 4668
3535 3707
3535 5695
3535 4412
3535 4509
3535 2218
3535 1884
3535 3295
3535 2474
4668 3707
4668 5695
4668 4412
4668 4509
4668 2218
4668 1884
4668 3295
4668 2474
3707 5695
3707 4412
3707 4509
3707 2218
3707 1884
3707 2474
5695 4412
5695 4509
5695 2218
5695 1884
5695 3295
5695 2474
4412 4509
4412 2218
4412 3295
4412 2474
4509 2218
4509 1884
4509 3295
2218 1884
2218 3295
2218 2474
3302 723
603 225
3414 3314
3414 2369
3330 2995
3330 4289
2995 4289
793 2446
793 1920
793 3594
793 920
793 4545
793 4239
793 205
793 3384
793 585
793 207
793 981
793 4909
793 2517
793 4436
793 2521
793 4743
793 4744
793 481
793 4018
793 730
2446 1920
2446 3594
2446 920
2446 4545
2446 4239
2446 205
2446 3384
2446 585
2446 207
2446 981
2446 4909
2446 2517
2446 4436
2446 2521
2446 4743
2446 4744
2446 481
2446 4018
2446 730
1920 3594
1920 920
1920 4545
1920 4239
1920 205
1920 3384
1920 585
1920 207
1920 981
1920 4909
1920 2517
1920 4436
1920 2521
1920 4743
1920 4744
1920 481
1920 4018
1920 730
3594 920
3594 4545
3594 4239
3594 205
3594 3384
3594 585
3594 207
3594 981
3594 4909
3594 2517
3594 4436
3594 2521
3594 4743
3594 4744
3594 481
3594 4018
3594 730
920 4545
920 4239
920 205
920 3384
920 585
920 207
920 981
920 4909
920 2517
920 4436
920 2521
920 4743
920 4744
920 481
920 4018
920 730
4545 4239
4545 205
4545 3384
4545 585
4545 207
4545 981
4545 4909
4545 2517
4545 4436
4545 2521
4545 4743
4545 4744
4545 481
4545 4018
4545 730
4239 205
4239 3384
4239 585
4239 207
4239 981
4239 4909
4239 2517
4239 4436
4239 2521
4239 4743
4239 4744
4239 481
4239 4018
4239 730
205 3384
205 585
205 207
205 981
205 4909
205 2517
205 4436
205 2521
205 4743
205 4744
205 481
205 4018
205 730
3384 585
3384 207
3384 981
3384 4909
3384 2517
3384 4436
3384 2521
3384 4743
3384 4744
3384 481
3384 4018
3384 730
585 207
585 981
585 4909
585 2517
585 4436
585 2521
585 4743
585 4744
585 481
585 4018
585 730
207 981
207 4909
207 2517
207 4436
207 2521
207 4743
207 4744
207 481
207 4018
207 730
981 4909
981 2517
981 4436
981 2521
981 4743
981 4744
981 481
981 4018
981 730
4909 2517
4909 4436
4909 2521
4909 4743
4909 4744
4909 481
4909 4018
4909 730
2517 4436
2517 2521
2517 4743
2517 4744
2517 481
2517 4018
2517 730
4436 2521
4436 4743
4436 4744
4436 481
4436 4018
4436 730
2521 4743
2521 4744
2521 481
2521 4018
2521 730
4743 4744
4743 481
4743 4018
4743 730
4744 481
4744 4018
4744 730
481 4018
481 730
4018 730
3872 1621
4038 4135
4038 882
4038 4413
5684 5199
2140 1297
5233 4164
5233 74
5233 5680
5233 4019
5233 4573
5233 2449
5233 4353
5233 5538
5233 2561
5233 1175
5233 908
5233 5516
5233 1247
4164 74
4164 5680
4164 4019
4164 4573
4164 2449
4164 4353
4164 5538
4164 2561
4164 1175
4164 908
4164 5516
4164 1247
74 5680
74 4019
74 4573
74 2449
74 4353
74 5538
74 2561
74 1175
74 908
74 5516
74 1247
5680 4019
5680 4573
5680 2449
5680 4353
5680 5538
5680 2561
5680 1175
5680 908
5680 5516
5680 1247
4019 4573
4019 2449
4019 4353
4019 5538
4019 2561
4019 1175
4019 908
4019 5516
4019 1247
4573 2449
4573 4353
4573 5538
4573 2561
4573 1175
4573 908
4573 5516
4573 1247
2449 4353
2449 5538
2449 2561
2449 1175
2449 908
2449 5516
2449 1247
4353 5538
4353 2561
4353 1175
4353 908
4353 5516
4353 1247
5538 2561
5538 1175
5538 908
5538 5516
5538 1247
2561 1175
2561 908
2561 5516
2561 1247
1175 908
1175 5516
1175 1247
908 5516
908 1247
5516 1247
4096 2299
1469 2993
4950 3267
4950 231
4950 1270
4950 4676
3267 231
3267 1270
3267 4676
231 1270
231 4676
1270 4676
4953 2952
4953 2803
4953 689
4953 1138
2952 2803
2952 689
2952 1138
2803 689
2803 1138
689 1138
1884 3295
1884 2474
3295 2474
4303 2848
2530 5309
2530 1210
2530 268
2530 1236
5309 1210
5309 268
5309 1236
1210 268
1210 1236
268 1236
3499 3002
3002 3558
5642 1186
734 3923
330 5617
4768 4763
4768 2083
4763 2083
1154 4319
1154 761
1154 4157
1154 5471
1154 631
1154 584
4319 761
4319 4157
4319 5471
4319 631
4319 584
761 4157
761 5471
761 631
761 584
4157 5471
4157 631
4157 584
5471 631
5471 584
631 584
5490 1265
1406 5536
1406 1081
5536 1081
381 5020
1792 4274
3418 2130
2130 698
5586 3740
5586 2335
3060 544
3060 4646
3060 4441
3060 3172
3060 1358
544 4646
544 4441
544 3172
544 1358
4646 4441
4646 3172
4646 1358
4441 3172
4441 1358
3172 1358
9 5673
9 1710
9 4921
9 4551
9 2248
4189 506
4189 5055
4189 4444
4189 2693
4189 5204
506 5055
506 4444
506 4310
506 3907
506 692
506 1188
5055 4444
5055 4310
5055 3907
5055 692
5055 1188
4444 4310
4444 3907
4444 692
4444 1188
5232 2479
4310 3907
4310 692
4310 1188
3907 692
3907 1188
692 1188
2693 5204
2693 190
5204 190
3364 1916
3364 5345
1916 5345
1710 4921
1710 4551
1710 2248
4921 4551
4921 2248
4551 2248
2643 2277
2643 5649
2643 4724
2643 4869
2643 3284
2277 5649
2277 4724
2277 4869
2277 3284
5649 4724
4724 4869
4724 3284
4677 4806
4677 3966
4806 3966
806 407
806 2472
407 2472
1971 1678
1971 5162
1678 5162
1678 1211
1678 5349
1678 3543
1678 364
1678 4151
1678 2956
1678 3152
1678 662
4917 971
1211 5349
5349 3543
364 4151
364 2956
364 3152
364 662
4151 2956
4151 3152
4151 662
2956 3152
2956 662
2531 2953
3742 1744
3742 2102
1744 2102
4940 3010
4043 219
2261 36
2261 3057
2261 5010
36 3057
36 5010
3057 5010
3317 4512
775 1157
775 5308
1157 5308
115 4547
115 3768
115 2853
115 891
4547 3768
4547 2853
3768 2853
2853 891
3682 3431
5620 1599
299 5110
4423 4715
4423 3486
4715 3486
1790 47
1790 3563
47 3563
1760 2135
4429 4697
1027 1877
1027 1610
1027 3219
1027 1592
1027 232
1027 475
1027 3243
1027 3931
1027 2523
1027 355
1877 1610
1877 3219
1877 1592
1877 232
1877 475
1877 3243
1877 3931
1877 2523
1877 355
1610 3219
1610 1592
1610 232
1610 475
1610 3243
1610 3931
1610 2523
1610 355
3219 1592
3219 232
3219 475
3219 3243
3219 3931
3219 2523
3219 355
1592 232
1592 475
1592 3243
1592 3931
1592 2523
1592 355
232 475
232 3243
232 3931
232 2523
232 355
475 3243
475 3931
475 2523
475 355
3243 3931
3243 2523
3243 355
3931 2523
3931 355
2523 355
5218 3691
5218 5520
5218 937
3691 5520
3691 937
3998 2509
637 3741
3741 4736
3741 1013
2519 5596
2519 3053
2519 4336
2519 619
2519 5568
5596 3053
5596 4336
5596 619
5596 5568
3053 4336
3053 619
3053 5568
4336 619
4336 5568
619 5568
5256 2699
5619 311
1846 5422
1846 2431
3621 76
1244 4284
4720 4003
4720 2526
4003 639
4003 2526
716 2481
639 2526
4123 3712
4123 5581
4123 3601
3712 874
874 5581
874 3601
2875 3271
2875 5074
2875 690
2875 2671
2875 2495
2875 495
2875 3551
2875 657
2875 2271
2875 1584
2875 3153
2875 1670
2875 4680
2875 69
2875 4427
2875 1144
2875 669
2875 849
2875 3447
2875 4207
2875 2613
2875 5436
2875 5627
2875 4930
2875 5392
3271 5074
3271 690
3271 2671
3271 2495
3271 495
3271 3551
3271 657
3271 2271
3271 1584
3271 3153
3271 1670
3271 4680
3271 69
3271 4427
3271 1144
3271 669
3271 849
3271 3447
3271 4207
3271 2613
3271 5436
3271 5627
3271 4930
3271 5392
5074 690
5074 2671
5074 2495
5074 495
5074 3551
5074 657
5074 2271
5074 1584
5074 3153
5074 1670
5074 4680
5074 69
5074 4427
5074 1144
5074 669
5074 849
5074 3447
5074 4207
5074 2613
5074 5436
5074 5627
5074 4930
5074 5392
690 2671
690 2495
690 495
690 3551
690 657
690 2271
690 1584
690 3153
690 1670
690 4680
690 69
690 4427
690 1144
690 669
690 849
690 3447
690 4207
690 2613
690 5436
690 5627
690 4930
690 5392
2671 2495
2671 495
2671 3551
2671 657
2671 2271
2671 1584
2671 3153
2671 1670
2671 4680
2671 69
2671 4427
2671 1144
2671 669
2671 849
2671 3447
2671 4207
2671 2613
2671 5436
2671 5627
2671 4930
2671 5392
2495 495
2495 3551
2495 657
2495 2271
2495 1584
2495 3153
2495 1670
2495 4680
2495 69
2495 4427
2495 1144
2495 669
2495 849
2495 3447
2495 4207
2495 2613
2495 5436
2495 5627
2495 4930
2495 5392
495 3551
495 657
495 2271
495 1584
495 3153
495 1670
495 4680
495 69
495 4427
495 1144
495 669
495 849
495 3447
495 4207
495 2613
495 5436
495 5627
495 4930
495 5392
3551 657
3551 2271
3551 1584
3551 3153
3551 1670
3551 4680
3551 69
3551 4427
3551 1144
3551 669
3551 849
3551 3447
3551 4207
3551 2613
3551 5436
3551 5627
3551 4930
3551 5392
657 2271
657 1584
657 3153
657 1670
657 4680
657 69
657 4427
657 1144
657 669
657 849
657 3447
657 4207
657 2613
657 5436
657 5627
657 4930
657 5392
2271 1584
2271 3153
2271 1670
2271 4680
2271 69
2271 4427
2271 1144
2271 669
2271 849
2271 3447
2271 4207
2271 2613
2271 5436
2271 5627
2271 4930
2271 5392
1584 3153
1584 1670
1584 4680
1584 69
1584 4427
1584 1144
1584 669
1584 849
1584 3447
1584 4207
1584 2613
1584 5436
1584 5627
1584 4930
1584 5392
3153 1670
3153 4680
3153 69
3153 4427
3153 1144
3153 669
3153 849
3153 3447
3153 4207
3153 2613
3153 5436
3153 5627
3153 4930
3153 5392
1670 4680
1670 69
1670 4427
1670 1144
1670 669
1670 849
1670 3447
1670 4207
1670 2613
1670 5436
1670 5627
1670 4930
1670 5392
4680 69
4680 4427
4680 1144
4680 669
4680 849
4680 3447
4680 4207
4680 2613
4680 5436
4680 5627
4680 4930
4680 5392
69 4427
69 1144
69 669
69 849
69 3447
69 4207
69 2613
69 5436
69 5627
69 4930
69 5392
4427 1144
4427 669
4427 849
4427 3447
4427 4207
4427 2613
4427 5436
4427 5627
4427 4930
4427 5392
1144 669
1144 849
1144 3447
1144 4207
1144 2613
1144 5436
1144 5627
1144 4930
1144 5392
669 849
669 3447
669 4207
669 2613
669 5436
669 5627
669 4930
669 5392
849 3447
849 4207
849 2613
849 5436
849 5627
849 4930
849 5392
3447 4207
3447 2613
3447 5436
3447 5627
3447 4930
3447 5392
4207 2613
4207 5436
4207 5627
4207 4930
4207 5392
2613 5436
2613 5627
2613 4930
2613 5392
5436 5627
5436 4930
5436 5392
5627 4930
5627 5392
4930 5392
1779 2756
2756 1845
4552 771
4552 3356
771 3356
1885 1817
4008 2457
5447 608
5447 2332
608 2332
767 5376
767 3639
5376 3639
3432 3581
578 764
578 3716
764 3716
45 2676
45 4849
2676 4849
3586 4462
4462 4610
