3693 19662
0 1
0 2
0 1361
0 2707
1 2
1 17
3 4
3 5
3 1755
4 5
4 21
4 22
4 23
4 243
4 244
4 282
4 383
4 575
4 1746
4 1757
4 1766
4 1767
4 1768
4 1771
4 1798
4 1799
4 1800
4 1801
4 1802
4 1803
4 1804
4 1805
4 1806
5 1755
5 1756
6 7
6 8
6 2073
6 2074
6 2075
6 2076
6 2077
7 2073
7 2074
7 2075
7 2076
7 2077
8 3569
8 3570
8 3571
8 3572
8 3573
8 3574
8 3575
8 3576
10 11
10 12
10 13
10 14
10 24
10 25
10 26
10 27
10 28
10 194
10 462
10 838
10 839
10 840
10 1759
10 1760
10 1761
10 1762
10 1763
10 1764
10 1765
10 2446
10 2447
10 2448
10 2449
10 2450
10 2451
10 2452
10 2453
10 2454
10 2715
10 2716
10 2717
10 2719
10 2720
10 2840
10 2841
11 12
11 13
11 14
11 49
11 53
11 58
11 59
11 60
11 177
11 178
11 252
11 261
11 408
11 409
11 410
11 441
11 442
11 443
11 444
11 445
11 446
11 447
11 482
11 483
11 578
11 611
11 613
11 664
11 665
11 666
11 699
11 700
11 701
11 702
11 760
11 761
11 762
11 763
11 830
11 831
11 832
11 833
11 838
11 839
11 840
11 1216
11 1217
11 1218
11 1219
11 1220
11 1447
11 1483
11 1485
11 1486
11 1616
11 1617
11 1747
11 1748
11 1749
11 1750
11 1751
11 1752
11 1753
11 1754
11 1775
11 1776
11 1777
11 1780
11 1825
11 1826
11 1928
11 1929
11 1930
11 1931
11 1932
11 1933
11 1935
11 2026
11 2027
11 2028
11 2029
11 2030
11 2031
11 2032
11 2033
11 2034
11 2035
11 2036
11 2037
11 2038
11 2039
11 2040
11 2041
11 2042
11 2043
11 2044
11 2045
11 2046
11 2047
11 2048
11 2133
11 2135
11 2138
11 2358
11 2496
11 2497
11 2623
11 2624
11 2627
11 2628
11 2629
11 2630
11 2687
11 2688
11 3143
11 3214
11 3215
11 3216
11 3217
11 3218
11 3219
11 3220
11 3221
11 3234
11 3459
11 3460
11 3461
11 3462
11 3465
11 3466
11 3467
11 3468
11 3584
11 3585
12 13
12 14
12 48
12 49
12 69
12 178
12 319
12 408
12 409
12 410
12 515
12 516
12 554
12 573
12 574
12 586
12 664
12 665
12 666
12 896
12 897
12 1189
12 1190
12 1499
12 1500
12 1565
12 1566
12 2231
12 2232
12 2359
12 2360
12 2361
12 2362
12 3522
12 3523
12 3524
13 14
13 16
14 16
18 19
19 80
19 81
21 22
21 23
21 1746
21 1755
21 1757
21 1758
21 1766
21 1767
21 1798
22 23
22 1746
22 1766
22 1767
22 1798
22 1811
23 269
23 1746
23 1766
23 1767
24 25
24 26
24 27
24 28
25 26
25 27
26 27
26 28
27 28
29 30
30 33
31 32
34 35
35 792
35 793
35 794
36 37
36 281
36 710
37 50
37 2072
37 3139
37 3352
37 3354
37 3389
37 3390
40 41
42 43
42 44
42 45
42 51
42 52
43 44
43 45
43 52
43 210
44 45
44 51
44 52
44 210
45 51
45 210
45 216
45 219
46 47
48 49
49 178
49 408
49 409
49 410
49 554
49 664
49 665
49 666
49 2592
49 2593
49 2638
49 2639
49 2640
49 3167
49 3168
49 3169
49 3170
49 3415
49 3416
50 3356
51 52
51 210
52 210
53 58
53 59
53 60
54 55
54 56
54 57
54 61
55 56
55 57
55 61
56 57
56 61
57 61
58 59
58 60
59 60
63 64
63 65
63 2241
63 2321
63 2322
63 2323
63 2324
63 2325
64 65
64 2241
64 2321
64 2322
64 2323
64 2324
64 2325
66 67
66 68
67 68
69 70
69 515
69 516
69 517
71 72
71 79
71 119
73 74
73 75
74 75
76 77
76 78
76 120
76 2295
76 2297
76 2300
76 2301
76 2307
76 2310
76 2313
76 2314
76 2317
76 2318
76 2319
76 2433
76 2528
76 2529
77 78
77 2295
77 2297
77 2300
77 2301
78 2295
78 2297
78 2300
78 2301
82 83
82 84
82 85
82 86
82 87
83 84
83 85
83 86
83 87
83 252
84 85
84 86
84 87
85 86
85 87
86 87
88 89
88 90
88 95
88 224
88 225
88 2148
89 90
90 95
90 324
90 2016
90 2017
90 2018
90 2019
90 2020
90 2021
90 2022
90 2023
90 2148
90 3198
90 3391
91 92
91 1655
91 1656
91 1657
91 1658
92 1656
92 1657
93 94
93 96
93 97
93 106
93 110
93 3077
93 3091
94 96
94 105
96 97
96 105
97 105
97 106
97 3091
98 99
99 100
99 101
102 103
102 104
102 170
102 171
103 104
104 170
104 171
105 106
105 3077
106 3091
107 108
108 145
108 146
109 3078
111 112
111 172
113 114
113 115
113 116
113 3081
114 115
114 116
114 3081
115 116
116 3081
117 118
122 123
123 124
123 125
123 126
127 128
127 129
127 130
127 131
128 131
132 246
132 518
132 3022
132 3023
132 3024
133 134
135 136
135 239
135 240
135 392
135 3235
135 3237
135 3238
135 3239
135 3240
135 3241
135 3506
135 3507
135 3508
135 3509
135 3510
135 3512
135 3513
135 3514
135 3515
135 3516
135 3517
135 3518
135 3525
135 3526
136 239
136 240
136 392
137 138
139 140
139 141
139 142
140 141
140 142
141 142
143 144
147 148
149 150
149 151
149 152
149 153
149 154
149 155
149 156
149 157
149 158
149 159
150 151
150 152
150 153
150 154
150 155
150 156
150 157
150 158
150 159
151 152
151 153
151 154
151 155
151 156
151 157
151 158
151 159
152 153
152 154
152 155
152 156
152 157
152 158
152 159
153 154
153 155
153 156
153 157
153 158
153 159
154 155
154 156
154 157
154 158
154 159
155 156
155 157
155 158
155 159
156 157
156 158
156 159
157 158
157 159
158 159
160 161
160 3019
160 3666
160 3667
160 3672
162 163
164 165
164 167
164 168
164 169
165 166
166 167
166 168
166 169
173 174
175 176
176 188
177 178
177 179
177 180
177 185
177 186
177 187
177 228
177 229
177 230
177 231
177 232
177 233
177 234
177 235
177 236
177 237
177 238
177 276
177 277
177 299
177 378
177 379
177 426
177 427
177 428
177 429
177 430
177 431
177 432
177 433
177 434
177 435
177 547
177 548
177 760
177 761
177 762
177 763
177 1447
177 1483
177 1484
177 1485
177 1486
177 1508
177 1509
177 1510
177 1521
177 1522
177 1523
177 1622
177 1623
177 1835
177 1836
177 2026
177 2027
177 2028
177 2029
177 2030
177 2031
177 2032
177 2033
177 2034
177 2035
177 2036
177 2037
177 2038
177 2039
177 2040
177 2041
177 2042
177 2043
177 2044
177 2045
177 2046
177 2047
177 2048
177 2829
177 3092
177 3220
177 3221
177 3357
177 3377
178 179
178 180
178 408
178 409
178 410
178 664
178 665
178 666
178 3092
179 180
179 3092
181 182
181 183
181 184
182 183
182 184
183 184
185 186
185 187
185 319
185 327
185 1604
185 1605
185 1606
185 1607
185 1615
185 2584
185 2585
185 2586
185 3126
185 3127
185 3128
186 187
186 327
186 1604
186 1605
186 1606
186 1607
187 327
187 1604
187 1605
187 1606
187 1607
187 1615
189 190
190 2790
190 2791
190 2792
193 194
193 195
193 386
193 387
194 195
194 462
194 2716
194 2717
196 197
198 199
198 200
198 201
198 202
198 2208
198 2830
198 2842
198 2843
198 2844
199 200
199 201
199 202
199 2208
199 2830
199 2842
199 2843
199 2844
200 201
200 202
201 202
201 2208
201 2830
201 2842
201 2843
201 2844
202 2208
202 2830
202 2842
202 2843
202 2844
203 204
206 207
206 208
206 213
206 215
206 460
206 466
206 467
206 703
206 704
206 705
206 706
206 707
206 708
206 709
208 466
208 467
212 213
212 324
212 420
212 421
221 222
221 223
222 223
224 225
226 227
226 251
226 255
227 251
227 258
228 229
228 230
228 231
228 232
228 233
228 234
228 235
228 236
228 237
228 238
228 379
229 230
229 231
229 232
229 233
229 234
229 235
229 236
229 237
229 238
229 379
230 231
230 232
230 233
230 234
230 235
230 236
230 237
230 238
230 379
231 232
231 233
231 234
231 235
231 236
231 237
231 238
231 379
232 233
232 234
232 235
232 236
232 237
232 238
232 379
233 234
233 235
233 236
233 237
233 238
233 379
234 235
234 236
234 237
234 238
234 379
235 236
235 237
235 238
235 379
236 237
236 238
236 379
237 238
238 379
239 240
239 392
239 2061
239 2064
239 2154
239 2155
239 2156
239 2157
239 2158
239 2160
239 2161
239 2162
239 2163
239 2175
239 2176
239 2185
239 2186
239 2191
239 2192
239 2195
239 2196
239 2197
239 2198
239 2199
239 2200
239 2201
239 2202
239 2203
239 2204
239 2205
239 2206
239 2207
239 2209
239 2210
239 2211
239 2212
239 2213
239 2214
239 2217
239 2218
239 2219
239 2220
239 2221
239 2222
239 2227
239 2228
239 2229
239 2230
239 2233
239 2234
239 2237
239 2238
239 2239
239 2240
239 2251
239 2252
239 2253
239 2255
239 2256
239 2274
239 2275
239 2276
239 2283
239 2288
239 2289
239 2290
239 2291
239 2292
239 2296
239 2298
239 2299
239 2302
239 2303
239 2304
239 2305
239 2306
239 2308
239 2309
239 2311
239 2312
239 2315
239 2316
239 2320
239 2326
239 2329
239 2330
239 2382
239 2383
239 2384
239 2385
239 2386
239 2387
239 2388
239 2389
239 2390
239 2557
239 2558
239 2559
239 2562
239 2564
239 2565
239 2570
239 2571
239 2589
239 3122
239 3123
239 3124
239 3125
239 3129
239 3130
239 3131
239 3132
239 3133
239 3134
239 3135
239 3136
239 3137
239 3138
239 3142
239 3144
239 3162
239 3171
239 3197
239 3235
239 3237
239 3238
239 3239
239 3240
239 3241
239 3260
239 3306
239 3314
239 3349
239 3353
239 3380
239 3392
239 3393
239 3438
239 3450
239 3499
239 3506
239 3507
239 3508
239 3509
239 3510
239 3511
239 3512
239 3513
239 3514
239 3515
239 3516
239 3517
239 3518
239 3525
239 3526
239 3568
239 3690
239 3691
239 3692
240 3235
240 3237
240 3238
240 3239
240 3240
240 3241
240 3506
240 3507
240 3508
240 3509
240 3510
240 3512
240 3513
240 3514
240 3515
240 3516
240 3517
240 3518
240 3525
240 3526
241 242
243 244
243 245
243 1746
243 1755
243 1757
243 1758
244 245
244 1746
244 1757
244 1758
244 1766
244 1767
244 1798
246 247
246 3021
248 249
248 250
248 382
248 2447
248 2448
248 2863
248 2864
248 2865
248 2866
248 2867
248 2868
248 2869
248 2870
248 2871
248 2872
248 2873
248 2874
248 2875
248 2876
249 250
250 382
251 255
252 2358
253 254
253 293
256 257
259 260
259 283
260 275
260 280
260 283
260 388
260 389
260 394
260 395
260 403
261 262
261 482
261 483
261 1216
261 1217
261 1218
261 1219
261 1220
261 1928
262 1757
262 1758
262 1766
262 1767
263 270
263 271
263 272
263 273
263 274
264 265
266 267
266 268
266 825
266 826
266 827
267 268
268 825
268 826
268 827
270 271
270 272
270 273
270 274
270 278
270 279
271 272
271 273
271 274
272 273
272 274
273 274
273 278
273 279
273 2759
273 2760
275 280
275 283
276 277
277 378
278 279
280 425
280 1022
282 1758
282 1766
282 1767
282 1798
282 1811
283 425
284 285
286 287
286 288
286 289
286 2541
287 288
287 2608
288 289
288 2540
288 2541
288 2608
288 2689
288 2690
288 2699
288 2700
288 2701
288 2702
289 2540
289 2608
290 291
290 292
291 292
291 380
291 381
292 380
292 381
295 296
295 297
295 298
296 297
296 298
297 298
299 300
299 301
299 302
299 426
299 427
299 428
299 429
299 430
299 431
299 432
299 433
299 434
299 435
299 3145
299 3146
299 3147
299 3148
299 3149
299 3357
299 3377
300 301
300 302
301 302
303 304
303 305
303 306
303 307
303 308
303 309
303 310
303 311
303 312
303 313
303 314
303 327
303 328
303 329
303 330
303 331
303 332
303 333
303 334
303 335
303 336
303 337
303 338
303 339
303 340
303 341
303 342
303 343
303 344
303 345
303 346
303 347
303 348
303 349
303 350
303 351
303 352
303 353
303 354
303 355
303 356
303 357
303 358
303 359
303 360
303 361
303 362
303 363
303 364
303 365
303 366
303 367
303 368
303 369
303 370
303 371
303 372
303 373
303 374
303 3320
303 3321
304 305
304 306
304 307
304 308
304 309
304 310
304 311
304 312
304 313
304 314
305 306
305 307
305 308
305 309
305 310
305 311
305 312
305 313
305 314
306 307
306 308
306 309
306 310
306 311
306 312
306 313
306 314
307 308
307 309
307 310
307 311
307 312
307 313
307 314
308 309
308 310
308 311
308 312
308 313
308 314
309 310
309 311
309 312
309 313
309 314
310 311
310 312
310 313
310 314
311 312
311 313
311 314
312 313
312 314
313 314
315 316
315 317
315 318
315 319
315 320
315 321
315 322
315 323
315 2391
315 2392
315 2393
316 317
316 318
316 319
316 320
316 321
316 322
316 323
317 318
317 319
317 320
317 321
317 322
317 323
318 319
318 320
318 321
318 322
318 323
318 375
318 376
318 377
318 466
318 655
318 656
318 657
318 658
318 830
318 834
318 835
318 2187
318 2188
318 3050
318 3051
318 3052
318 3053
318 3056
318 3057
318 3058
318 3059
318 3060
318 3224
318 3225
318 3226
318 3227
318 3228
318 3229
318 3230
318 3321
318 3531
318 3532
318 3537
318 3538
318 3539
318 3540
318 3541
318 3544
319 320
319 321
319 322
319 323
319 462
319 533
319 537
319 586
319 669
319 670
319 671
319 672
319 673
319 674
319 777
319 778
319 779
319 780
319 781
319 782
319 783
319 1425
319 1426
319 1604
319 1606
319 2359
319 2360
319 2361
319 2362
319 2572
319 2573
319 2584
319 2585
319 2586
319 2587
319 2588
319 3126
319 3127
319 3128
319 3489
319 3490
319 3491
320 321
320 322
320 323
321 322
321 323
322 323
324 325
324 326
324 420
324 421
324 481
324 530
324 531
324 532
324 533
324 534
324 535
324 536
324 537
324 538
324 539
324 584
324 1847
324 1848
324 1849
324 1850
324 1851
324 1852
324 1853
324 1854
324 1855
324 1856
324 1857
324 1858
324 1859
324 1860
324 2016
324 2017
324 2018
324 2019
324 2020
324 2021
324 2022
324 2023
324 2024
324 2025
324 3093
324 3094
324 3095
324 3096
324 3097
324 3098
324 3101
324 3102
324 3105
324 3106
324 3161
324 3198
325 326
327 328
327 329
327 330
327 331
327 332
327 333
327 334
327 335
327 336
327 337
327 338
327 339
327 340
327 341
327 342
327 343
327 344
327 345
327 346
327 347
327 348
327 349
327 350
327 351
327 352
327 353
327 354
327 355
327 356
327 357
327 358
327 359
327 360
327 361
327 362
327 363
327 364
327 365
327 366
327 367
327 368
327 369
327 370
327 371
327 372
327 373
327 374
327 1604
327 1605
327 1606
327 1607
327 1615
328 329
328 330
328 331
328 332
328 333
328 334
328 335
328 336
328 337
328 338
328 339
328 340
328 341
328 342
328 343
328 344
328 345
328 346
328 347
328 348
328 349
328 350
328 351
328 352
328 353
328 354
328 355
328 356
328 357
328 358
328 359
328 360
328 361
328 362
328 363
328 364
328 365
328 366
328 367
328 368
328 369
328 370
328 371
328 372
328 373
328 374
329 330
329 331
329 332
329 333
329 334
329 335
329 336
329 337
329 338
329 339
329 340
329 341
329 342
329 343
329 344
329 345
329 346
329 347
329 348
329 349
329 350
329 351
329 352
329 353
329 354
329 355
329 356
329 357
329 358
329 359
329 360
329 361
329 362
329 363
329 364
329 365
329 366
329 367
329 368
329 369
329 370
329 371
329 372
329 373
329 374
330 331
330 332
330 333
330 334
330 335
330 336
330 337
330 338
330 339
330 340
330 341
330 342
330 343
330 344
330 345
330 346
330 347
330 348
330 349
330 350
330 351
330 352
330 353
330 354
330 355
330 356
330 357
330 358
330 359
330 360
330 361
330 362
330 363
330 364
330 365
330 366
330 367
330 368
330 369
330 370
330 371
330 372
330 373
330 374
331 332
331 333
331 334
331 335
331 336
331 337
331 338
331 339
331 340
331 341
331 342
331 343
331 344
331 345
331 346
331 347
331 348
331 349
331 350
331 351
331 352
331 353
331 354
331 355
331 356
331 357
331 358
331 359
331 360
331 361
331 362
331 363
331 364
331 365
331 366
331 367
331 368
331 369
331 370
331 371
331 372
331 373
331 374
332 333
332 334
332 335
332 336
332 337
332 338
332 339
332 340
332 341
332 342
332 343
332 344
332 345
332 346
332 347
332 348
332 349
332 350
332 351
332 352
332 353
332 354
332 355
332 356
332 357
332 358
332 359
332 360
332 361
332 362
332 363
332 364
332 365
332 366
332 367
332 368
332 369
332 370
332 371
332 372
332 373
332 374
332 1827
332 1873
332 1874
332 1875
332 1876
332 1877
333 334
333 335
333 336
333 337
333 338
333 339
333 340
333 341
333 342
333 343
333 344
333 345
333 346
333 347
333 348
333 349
333 350
333 351
333 352
333 353
333 354
333 355
333 356
333 357
333 358
333 359
333 360
333 361
333 362
333 363
333 364
333 365
333 366
333 367
333 368
333 369
333 370
333 371
333 372
333 373
333 374
334 335
334 336
334 337
334 338
334 339
334 340
334 341
334 342
334 343
334 344
334 345
334 346
334 347
334 348
334 349
334 350
334 351
334 352
334 353
334 354
334 355
334 356
334 357
334 358
334 359
334 360
334 361
334 362
334 363
334 364
334 365
334 366
334 367
334 368
334 369
334 370
334 371
334 372
334 373
334 374
335 336
335 337
335 338
335 339
335 340
335 341
335 342
335 343
335 344
335 345
335 346
335 347
335 348
335 349
335 350
335 351
335 352
335 353
335 354
335 355
335 356
335 357
335 358
335 359
335 360
335 361
335 362
335 363
335 364
335 365
335 366
335 367
335 368
335 369
335 370
335 371
335 372
335 373
335 374
336 337
336 338
336 339
336 340
336 341
336 342
336 343
336 344
336 345
336 346
336 347
336 348
336 349
336 350
336 351
336 352
336 353
336 354
336 355
336 356
336 357
336 358
336 359
336 360
336 361
336 362
336 363
336 364
336 365
336 366
336 367
336 368
336 369
336 370
336 371
336 372
336 373
336 374
337 338
337 339
337 340
337 341
337 342
337 343
337 344
337 345
337 346
337 347
337 348
337 349
337 350
337 351
337 352
337 353
337 354
337 355
337 356
337 357
337 358
337 359
337 360
337 361
337 362
337 363
337 364
337 365
337 366
337 367
337 368
337 369
337 370
337 371
337 372
337 373
337 374
338 339
338 340
338 341
338 342
338 343
338 344
338 345
338 346
338 347
338 348
338 349
338 350
338 351
338 352
338 353
338 354
338 355
338 356
338 357
338 358
338 359
338 360
338 361
338 362
338 363
338 364
338 365
338 366
338 367
338 368
338 369
338 370
338 371
338 372
338 373
338 374
339 340
339 341
339 342
339 343
339 344
339 345
339 346
339 347
339 348
339 349
339 350
339 351
339 352
339 353
339 354
339 355
339 356
339 357
339 358
339 359
339 360
339 361
339 362
339 363
339 364
339 365
339 366
339 367
339 368
339 369
339 370
339 371
339 372
339 373
339 374
340 341
340 342
340 343
340 344
340 345
340 346
340 347
340 348
340 349
340 350
340 351
340 352
340 353
340 354
340 355
340 356
340 357
340 358
340 359
340 360
340 361
340 362
340 363
340 364
340 365
340 366
340 367
340 368
340 369
340 370
340 371
340 372
340 373
340 374
341 342
341 343
341 344
341 345
341 346
341 347
341 348
341 349
341 350
341 351
341 352
341 353
341 354
341 355
341 356
341 357
341 358
341 359
341 360
341 361
341 362
341 363
341 364
341 365
341 366
341 367
341 368
341 369
341 370
341 371
341 372
341 373
341 374
342 343
342 344
342 345
342 346
342 347
342 348
342 349
342 350
342 351
342 352
342 353
342 354
342 355
342 356
342 357
342 358
342 359
342 360
342 361
342 362
342 363
342 364
342 365
342 366
342 367
342 368
342 369
342 370
342 371
342 372
342 373
342 374
343 344
343 345
343 346
343 347
343 348
343 349
343 350
343 351
343 352
343 353
343 354
343 355
343 356
343 357
343 358
343 359
343 360
343 361
343 362
343 363
343 364
343 365
343 366
343 367
343 368
343 369
343 370
343 371
343 372
343 373
343 374
344 345
344 346
344 347
344 348
344 349
344 350
344 351
344 352
344 353
344 354
344 355
344 356
344 357
344 358
344 359
344 360
344 361
344 362
344 363
344 364
344 365
344 366
344 367
344 368
344 369
344 370
344 371
344 372
344 373
344 374
345 346
345 347
345 348
345 349
345 350
345 351
345 352
345 353
345 354
345 355
345 356
345 357
345 358
345 359
345 360
345 361
345 362
345 363
345 364
345 365
345 366
345 367
345 368
345 369
345 370
345 371
345 372
345 373
345 374
346 347
346 348
346 349
346 350
346 351
346 352
346 353
346 354
346 355
346 356
346 357
346 358
346 359
346 360
346 361
346 362
346 363
346 364
346 365
346 366
346 367
346 368
346 369
346 370
346 371
346 372
346 373
346 374
347 348
347 349
347 350
347 351
347 352
347 353
347 354
347 355
347 356
347 357
347 358
347 359
347 360
347 361
347 362
347 363
347 364
347 365
347 366
347 367
347 368
347 369
347 370
347 371
347 372
347 373
347 374
348 349
348 350
348 351
348 352
348 353
348 354
348 355
348 356
348 357
348 358
348 359
348 360
348 361
348 362
348 363
348 364
348 365
348 366
348 367
348 368
348 369
348 370
348 371
348 372
348 373
348 374
349 350
349 351
349 352
349 353
349 354
349 355
349 356
349 357
349 358
349 359
349 360
349 361
349 362
349 363
349 364
349 365
349 366
349 367
349 368
349 369
349 370
349 371
349 372
349 373
349 374
350 351
350 352
350 353
350 354
350 355
350 356
350 357
350 358
350 359
350 360
350 361
350 362
350 363
350 364
350 365
350 366
350 367
350 368
350 369
350 370
350 371
350 372
350 373
350 374
351 352
351 353
351 354
351 355
351 356
351 357
351 358
351 359
351 360
351 361
351 362
351 363
351 364
351 365
351 366
351 367
351 368
351 369
351 370
351 371
351 372
351 373
351 374
352 353
352 354
352 355
352 356
352 357
352 358
352 359
352 360
352 361
352 362
352 363
352 364
352 365
352 366
352 367
352 368
352 369
352 370
352 371
352 372
352 373
352 374
353 354
353 355
353 356
353 357
353 358
353 359
353 360
353 361
353 362
353 363
353 364
353 365
353 366
353 367
353 368
353 369
353 370
353 371
353 372
353 373
353 374
354 355
354 356
354 357
354 358
354 359
354 360
354 361
354 362
354 363
354 364
354 365
354 366
354 367
354 368
354 369
354 370
354 371
354 372
354 373
354 374
355 356
355 357
355 358
355 359
355 360
355 361
355 362
355 363
355 364
355 365
355 366
355 367
355 368
355 369
355 370
355 371
355 372
355 373
355 374
356 357
356 358
356 359
356 360
356 361
356 362
356 363
356 364
356 365
356 366
356 367
356 368
356 369
356 370
356 371
356 372
356 373
356 374
357 358
357 359
357 360
357 361
357 362
357 363
357 364
357 365
357 366
357 367
357 368
357 369
357 370
357 371
357 372
357 373
357 374
358 359
358 360
358 361
358 362
358 363
358 364
358 365
358 366
358 367
358 368
358 369
358 370
358 371
358 372
358 373
358 374
359 360
359 361
359 362
359 363
359 364
359 365
359 366
359 367
359 368
359 369
359 370
359 371
359 372
359 373
359 374
360 361
360 362
360 363
360 364
360 365
360 366
360 367
360 368
360 369
360 370
360 371
360 372
360 373
360 374
361 362
361 363
361 364
361 365
361 366
361 367
361 368
361 369
361 370
361 371
361 372
361 373
361 374
362 363
362 364
362 365
362 366
362 367
362 368
362 369
362 370
362 371
362 372
362 373
362 374
363 364
363 365
363 366
363 367
363 368
363 369
363 370
363 371
363 372
363 373
363 374
364 365
364 366
364 367
364 368
364 369
364 370
364 371
364 372
364 373
364 374
365 366
365 367
365 368
365 369
365 370
365 371
365 372
365 373
365 374
366 367
366 368
366 369
366 370
366 371
366 372
366 373
366 374
367 368
367 369
367 370
367 371
367 372
367 373
367 374
368 369
368 370
368 371
368 372
368 373
368 374
369 370
369 371
369 372
369 373
369 374
370 371
370 372
370 373
370 374
371 372
371 373
371 374
372 373
372 374
373 374
375 376
375 377
375 3224
375 3225
375 3226
375 3227
375 3228
375 3229
375 3230
376 377
376 3224
376 3225
376 3226
376 3227
376 3228
376 3229
376 3230
377 3224
377 3225
377 3226
377 3227
377 3228
377 3229
377 3230
383 1766
383 1767
384 385
386 387
388 393
389 393
390 391
390 483
390 559
390 569
390 650
390 651
390 659
390 660
390 661
390 662
390 663
392 3235
392 3237
392 3238
392 3239
392 3240
392 3241
392 3506
392 3507
392 3508
392 3509
392 3510
392 3512
392 3513
392 3514
392 3515
392 3516
392 3517
392 3518
392 3525
392 3526
393 394
396 397
396 398
397 398
399 400
399 401
399 402
399 1374
404 405
404 461
405 461
406 407
406 459
406 1375
406 1376
408 409
408 410
408 664
408 665
408 666
409 410
409 664
409 665
410 666
411 412
413 414
413 415
413 1492
413 1493
413 1494
413 1495
413 1496
414 415
414 1492
414 1493
414 1494
414 1495
414 1496
415 1492
415 1493
415 1494
415 1495
415 1496
416 417
416 418
416 419
417 418
417 419
417 694
417 1194
417 1195
417 1198
417 1199
417 1200
417 1333
417 1334
417 1335
417 1336
417 1337
417 1338
417 1339
417 1990
417 2257
417 2259
417 2261
417 2634
417 2894
417 2910
417 2913
417 2914
417 2915
417 2917
417 2925
417 2928
417 2932
417 2940
417 2943
417 2945
417 2947
417 2948
417 2954
417 2955
417 2960
417 2961
417 2962
417 2996
417 2997
417 2999
417 3000
417 3001
417 3002
417 3004
418 419
418 1194
418 1195
418 1198
418 1199
418 1200
418 1333
418 1334
418 1335
418 1336
418 1337
418 1338
418 1339
418 2257
418 2259
418 2261
418 2634
418 2894
418 2910
418 2913
418 2914
418 2915
418 2917
418 2925
418 2928
418 2932
418 2940
418 2943
418 2945
418 2947
418 2948
418 2954
418 2955
418 2960
418 2961
418 2962
418 2996
418 2997
418 2999
418 3000
418 3001
418 3002
418 3004
419 694
419 1194
419 1195
419 1198
419 1199
419 1200
419 1333
419 1334
419 1335
419 1336
419 1337
419 1338
419 1339
419 1990
419 2257
419 2259
419 2261
419 2634
419 2894
419 2910
419 2913
419 2914
419 2915
419 2917
419 2925
419 2928
419 2932
419 2940
419 2943
419 2945
419 2947
419 2948
419 2954
419 2955
419 2960
419 2961
419 2962
419 2996
419 2997
419 2999
419 3000
419 3001
419 3002
419 3004
420 421
421 481
421 530
421 531
421 532
421 533
421 534
421 535
421 536
421 537
421 538
421 539
421 584
421 1847
421 1848
421 1849
421 1850
421 1851
421 1852
421 1853
421 1854
421 1855
421 1856
421 1857
421 1858
421 1859
421 1860
421 3093
421 3094
421 3095
421 3096
421 3097
421 3098
421 3101
421 3102
421 3105
421 3106
421 3161
422 423
422 424
422 2327
422 2328
423 424
424 2327
424 2328
426 427
426 428
426 429
426 430
426 431
426 432
426 433
426 434
426 435
426 3357
426 3377
427 428
427 429
427 430
427 431
427 432
427 433
427 434
427 435
427 3357
427 3377
428 429
428 430
428 431
428 432
428 433
428 434
428 435
428 3357
428 3377
429 430
429 431
429 432
429 433
429 434
429 435
429 3357
429 3377
430 431
430 432
430 433
430 434
430 435
430 3357
430 3377
431 432
431 433
431 434
431 435
431 3357
431 3377
432 433
432 434
432 435
432 3357
432 3377
433 434
433 435
433 3357
434 435
434 3357
434 3377
435 3377
436 437
436 438
436 443
436 495
436 506
436 507
436 572
436 623
436 624
436 627
436 630
436 631
436 632
436 633
436 634
436 635
436 636
436 637
437 438
437 443
437 495
437 506
437 507
437 572
437 623
437 624
437 627
437 630
437 631
437 632
437 633
437 634
437 635
437 636
437 637
438 443
438 495
438 506
438 507
438 572
438 623
438 624
438 627
438 630
438 631
438 632
438 633
438 634
438 635
438 636
438 637
439 440
439 493
439 494
439 611
439 612
439 613
440 493
440 611
440 612
440 613
441 442
441 443
441 444
441 445
441 446
441 447
442 443
442 444
442 447
443 444
443 445
443 446
443 447
443 450
443 451
443 452
443 454
443 455
443 495
443 506
443 507
443 572
443 623
443 624
443 627
443 630
443 631
443 632
443 633
443 634
443 635
443 636
443 637
444 445
444 446
445 447
446 447
447 450
447 451
447 452
447 454
447 455
448 449
448 3236
449 585
449 3258
449 3259
450 451
450 455
451 452
451 454
452 455
453 2747
453 2773
454 455
456 457
456 458
457 458
460 703
460 704
460 705
460 706
460 707
460 708
460 709
462 463
462 464
462 465
462 669
462 670
462 671
462 672
462 673
462 674
462 1425
462 1426
462 2560
462 2561
462 2715
462 2716
462 2717
462 2719
462 2720
462 2840
462 2841
462 3350
462 3351
462 3488
463 464
463 465
463 3350
463 3351
464 465
464 3351
465 3350
466 467
466 3058
466 3059
466 3060
468 469
468 470
468 471
469 470
469 471
470 471
472 473
474 475
474 476
474 477
474 478
474 479
474 480
475 476
475 477
475 478
475 479
475 480
476 477
476 478
476 479
476 480
477 478
477 479
477 480
478 479
478 480
479 480
481 482
481 483
481 484
481 485
481 486
481 487
481 488
481 489
481 533
481 537
481 1847
481 1848
481 1849
481 1850
481 1851
481 1852
481 1853
481 1854
481 1855
481 1856
481 1857
481 1858
481 1859
482 483
482 484
482 485
482 486
482 487
482 488
482 489
482 1216
482 1217
482 1218
482 1219
482 1220
482 1928
482 1936
482 1937
482 1938
482 1939
482 1940
482 1941
483 484
483 485
483 486
483 487
483 488
483 489
483 559
483 569
483 650
483 651
483 659
483 660
483 661
483 662
483 663
483 1216
483 1217
483 1218
483 1219
483 1220
483 1928
483 1929
483 1930
483 1931
483 1932
483 1933
483 1935
483 1936
483 1937
483 1938
483 1939
483 1940
483 1941
484 485
484 486
484 487
484 488
484 489
485 486
485 487
485 488
485 489
485 495
485 496
485 497
485 498
485 499
485 500
485 501
485 502
485 503
485 504
485 505
485 506
485 507
485 508
486 487
486 488
486 489
487 488
487 489
487 490
487 491
487 492
488 489
490 491
490 492
491 492
493 494
493 611
493 612
493 613
495 496
495 497
495 498
495 499
495 500
495 501
495 502
495 503
495 504
495 505
495 506
495 507
495 508
495 572
495 622
495 623
495 624
495 625
495 626
495 627
495 630
495 631
495 632
495 633
495 634
495 635
495 636
495 637
495 722
495 723
495 724
495 725
495 726
495 727
495 728
495 729
495 730
495 736
495 737
495 738
495 739
495 740
495 741
495 742
495 744
495 745
495 746
495 748
495 803
495 804
495 805
495 812
496 497
496 498
496 499
496 500
496 501
496 502
496 503
496 504
496 505
496 506
496 507
496 508
497 498
497 499
497 500
497 501
497 502
497 503
497 504
497 505
497 506
497 507
497 508
498 499
498 500
498 501
498 502
498 503
498 504
498 505
498 506
498 507
498 508
499 500
499 501
499 502
499 503
499 504
499 505
499 506
499 507
499 508
500 501
500 502
500 503
500 504
500 505
500 506
500 507
500 508
501 502
501 503
501 504
501 505
501 506
501 507
501 508
502 503
502 504
502 505
502 506
502 507
502 508
503 504
503 505
503 506
503 507
503 508
504 505
504 506
504 507
504 508
505 506
505 507
505 508
506 507
506 508
506 572
506 622
506 623
506 624
506 625
506 626
506 627
506 630
506 631
506 632
506 633
506 634
506 635
506 636
506 637
506 1437
506 1438
506 1456
506 1457
506 1479
506 1480
507 508
507 572
507 622
507 623
507 624
507 625
507 626
507 627
507 630
507 631
507 632
507 633
507 634
507 635
507 636
507 637
507 1437
507 1438
507 1456
507 1457
507 1479
507 1480
509 510
509 511
509 2613
509 2762
509 2763
510 511
510 2613
511 2613
512 513
512 514
512 2526
512 2527
512 3303
512 3304
512 3552
512 3553
512 3554
512 3556
512 3557
512 3562
512 3567
513 514
515 516
515 517
519 520
521 522
521 523
521 524
521 525
521 526
521 527
521 528
521 529
521 2193
521 2194
522 523
522 524
522 525
522 526
522 527
522 528
522 529
522 2193
522 2194
523 524
523 525
523 526
523 527
523 528
523 529
523 2193
523 2194
524 525
524 526
524 527
524 528
524 529
524 2193
524 2194
525 526
525 527
525 528
525 529
525 2193
526 527
526 528
526 529
526 2193
526 2194
527 528
527 529
527 2194
528 529
528 2193
528 2194
529 2193
529 2194
530 531
530 532
530 533
530 534
530 535
530 536
530 537
530 538
530 539
530 584
531 532
531 533
531 534
531 535
531 536
531 537
531 538
531 539
531 584
532 533
532 534
532 535
532 536
532 537
532 538
532 539
532 584
533 534
533 535
533 536
533 537
533 538
533 539
533 584
533 1847
533 1848
533 1849
533 1850
533 1851
533 1852
533 1853
533 1854
533 1855
533 1856
533 1857
533 1858
533 1859
533 1860
533 2572
533 2573
533 2587
533 2588
533 2594
533 2595
533 3563
533 3564
534 535
534 536
534 537
534 538
534 539
534 584
535 536
535 537
535 538
535 539
535 584
536 537
536 538
536 539
536 584
537 538
537 539
537 584
537 1847
537 1848
537 1849
537 1850
537 1851
537 1852
537 1853
537 1854
537 1855
537 1856
537 1857
537 1858
537 1859
537 1860
537 2572
537 2573
537 2587
537 2588
537 2594
537 2595
537 3563
537 3564
538 539
538 584
540 541
540 542
541 542
543 544
545 546
545 2159
546 2159
547 548
549 550
551 552
551 553
551 3358
552 601
553 3358
554 3606
555 556
555 557
555 558
555 559
555 560
555 561
555 562
555 563
555 564
555 565
555 566
555 567
555 568
555 569
555 570
555 571
555 572
555 651
555 652
555 660
555 1841
555 1842
555 1843
555 1844
555 1845
555 1846
556 557
556 558
556 559
556 560
556 561
556 562
556 563
556 564
556 565
556 566
556 567
556 568
556 569
556 570
556 571
556 572
556 578
556 579
556 580
556 581
556 582
556 583
557 558
557 559
557 560
557 561
557 562
557 563
557 564
557 565
557 566
557 567
557 568
557 569
557 570
557 571
557 572
557 651
557 652
557 660
557 1841
557 1842
557 1843
557 1844
557 1845
557 1846
558 559
558 560
558 561
558 562
558 563
558 564
558 565
558 566
558 567
558 568
558 569
558 570
558 571
558 572
558 650
558 651
558 652
558 660
558 1841
558 1842
558 1843
558 1844
558 1845
558 1846
559 560
559 561
559 562
559 563
559 564
559 565
559 566
559 567
559 568
559 569
559 570
559 571
559 572
559 650
559 651
559 652
559 659
559 660
559 661
559 662
559 663
559 1841
559 1842
559 1843
559 1844
559 1845
559 1846
560 561
560 562
560 563
560 564
560 565
560 566
560 567
560 568
560 569
560 570
560 571
560 572
560 650
560 651
560 652
560 660
560 1841
560 1842
560 1843
560 1844
560 1845
560 1846
561 562
561 563
561 564
561 565
561 566
561 567
561 568
561 569
561 570
561 571
561 572
561 578
561 579
561 580
561 581
561 582
561 583
561 591
562 563
562 564
562 565
562 566
562 567
562 568
562 569
562 570
562 571
562 572
562 578
562 579
562 580
562 581
562 582
562 583
562 591
562 650
562 651
562 652
562 660
562 1841
562 1842
562 1843
562 1844
562 1845
562 1846
563 564
563 565
563 566
563 567
563 568
563 569
563 570
563 571
563 572
563 651
563 652
563 660
563 1841
563 1842
563 1843
563 1844
563 1845
563 1846
564 565
564 566
564 567
564 568
564 569
564 570
564 571
564 572
564 578
564 579
564 580
564 581
564 582
564 583
564 591
565 566
565 567
565 568
565 569
565 570
565 571
565 572
565 578
565 579
565 580
565 581
565 582
565 583
565 591
566 567
566 568
566 569
566 570
566 571
566 572
566 578
566 579
566 580
566 581
566 582
566 583
566 591
566 650
566 651
566 652
566 660
566 1841
566 1842
566 1843
566 1844
566 1845
566 1846
567 568
567 569
567 570
567 571
567 572
567 578
567 579
567 580
567 581
567 582
567 583
567 591
567 650
567 651
567 652
567 660
567 1841
567 1842
567 1843
567 1844
567 1845
567 1846
568 569
568 570
568 571
568 572
568 578
568 579
568 580
568 581
568 582
568 583
568 591
569 570
569 571
569 572
569 650
569 652
569 659
569 660
569 661
569 662
569 663
569 1841
569 1842
569 1843
569 1844
569 1845
569 1846
570 571
570 572
570 651
570 652
570 660
570 1295
570 1841
570 1842
570 1843
570 1844
570 1845
570 1846
570 1999
570 2000
570 2001
570 3298
571 572
571 651
571 652
571 660
571 1841
571 1842
571 1843
571 1844
571 1845
571 1846
572 623
572 624
572 627
572 630
572 631
572 632
572 633
572 634
572 635
572 636
572 637
572 650
572 651
572 652
572 660
572 1841
572 1842
572 1843
572 1844
572 1845
572 1846
573 574
575 1746
575 1766
575 1767
575 1798
575 1811
576 577
576 3254
577 3254
578 579
578 580
578 581
578 582
578 583
578 591
578 2223
578 2224
578 2225
578 2226
578 3231
578 3232
578 3233
578 3234
579 580
579 581
579 582
579 583
579 591
580 581
580 582
580 583
580 591
581 582
581 583
581 591
582 583
582 591
583 591
585 3236
586 587
586 588
586 653
586 654
586 784
586 785
586 786
586 853
586 854
586 1384
586 1385
586 1386
586 1387
586 1388
586 1389
586 1390
586 1391
586 1392
586 1393
586 1394
586 1395
586 1396
586 1397
586 1398
586 2359
586 2360
586 2361
586 2362
586 3069
586 3070
586 3242
586 3555
586 3588
586 3589
586 3590
586 3591
586 3611
586 3612
587 588
588 3555
589 590
590 1610
592 593
592 594
593 594
595 596
595 608
597 598
599 600
599 1667
601 3388
602 603
604 605
604 606
604 607
605 606
605 607
606 607
609 610
611 612
611 613
611 830
611 831
611 832
611 833
611 2627
611 2628
612 613
613 830
613 831
613 832
613 833
613 2627
613 2628
614 615
616 617
618 619
620 621
620 1112
620 1113
622 623
622 624
622 625
622 626
622 627
623 624
623 625
623 626
623 627
623 630
623 631
623 632
623 633
623 634
623 635
623 636
623 637
624 625
624 626
624 627
624 630
624 631
624 632
624 633
624 634
624 635
624 636
624 637
625 626
625 627
626 627
627 630
627 631
627 632
627 633
627 634
627 635
627 636
627 637
628 629
630 631
630 632
630 633
630 634
630 635
630 636
630 637
630 722
630 723
630 724
630 725
630 726
630 727
630 728
630 729
630 730
630 736
630 737
630 738
630 739
630 740
630 741
630 742
630 743
630 744
630 745
630 746
630 747
630 748
630 803
630 804
630 805
630 812
630 2831
630 2832
630 2833
630 2834
630 2835
630 2836
630 2837
630 2838
630 2839
630 2895
630 2896
630 2897
630 2898
630 2899
630 2900
630 2901
630 2902
630 2903
631 632
631 633
631 634
631 635
631 636
631 637
632 633
632 634
632 635
632 636
632 637
633 634
633 635
633 636
633 637
634 635
634 636
634 637
635 636
635 637
636 637
638 639
638 640
638 641
638 642
638 647
638 648
638 649
639 640
639 641
639 642
640 641
640 642
641 642
642 647
642 648
642 649
643 644
643 645
643 646
645 646
647 648
647 649
648 649
650 651
650 652
650 659
650 660
650 661
650 662
650 663
651 652
651 659
651 660
651 661
651 662
651 663
651 1841
651 1842
651 1843
651 1844
651 1845
651 1846
652 660
652 1841
652 1842
652 1843
652 1844
652 1845
652 1846
653 654
653 784
653 785
653 786
654 784
654 785
654 786
655 656
655 657
655 658
656 657
656 658
656 3056
656 3057
657 658
657 3056
657 3057
658 766
658 767
658 768
659 660
659 661
659 662
659 663
660 661
660 662
660 663
660 1841
660 1842
660 1843
660 1844
660 1845
660 1846
661 662
661 663
662 663
664 666
665 666
669 670
669 671
669 672
669 673
669 674
669 1425
669 1426
670 671
670 672
670 673
670 674
670 1425
670 1426
671 672
671 673
671 674
671 1425
671 1426
672 673
672 674
672 1425
672 1426
673 674
674 1425
674 1426
676 677
677 678
677 679
677 680
677 681
677 684
677 685
677 686
682 683
687 688
687 3007
689 690
689 691
689 692
689 693
689 694
689 695
689 696
689 697
689 698
689 2090
689 3286
689 3297
690 691
690 692
690 693
691 692
691 693
692 693
694 695
694 696
694 697
694 698
694 1990
694 2634
695 696
695 697
695 698
696 697
696 698
697 698
699 700
699 701
699 702
700 701
700 702
701 702
703 704
703 705
703 706
703 707
703 708
703 709
704 705
704 706
704 707
704 708
704 709
705 706
705 707
705 708
705 709
705 1194
705 1195
705 1198
705 1199
705 1200
705 1333
705 1334
705 1335
705 1336
705 1337
705 1338
705 1339
705 1842
705 1846
705 2257
705 2259
705 2261
705 2857
705 2886
705 2887
705 2888
705 2890
705 2891
705 2892
705 2893
705 2894
705 2904
705 2905
705 2906
705 2909
705 2910
705 2911
705 2913
705 2914
705 2915
705 2916
705 2917
705 2919
705 2920
705 2921
705 2922
705 2923
705 2924
705 2925
705 2926
705 2927
705 2928
705 2929
705 2930
705 2931
705 2932
705 2933
705 2934
705 2935
705 2936
705 2937
705 2938
705 2939
705 2940
705 2941
705 2942
705 2943
705 2944
705 2945
705 2946
705 2947
705 2948
705 2952
705 2953
705 2954
705 2955
705 2958
705 2959
705 2960
705 2961
705 2962
705 3381
705 3382
706 707
706 708
706 709
707 708
707 709
708 709
710 711
712 713
712 714
713 714
715 716
715 753
717 718
717 719
717 720
717 721
717 735
718 719
718 720
718 721
718 731
718 732
718 733
718 734
718 735
719 720
719 721
719 731
719 732
719 733
719 734
719 735
720 721
720 731
720 732
720 733
720 734
720 735
721 731
721 732
721 733
721 734
722 723
722 724
722 725
722 726
722 727
722 728
722 729
722 730
722 736
722 737
722 738
722 739
722 740
722 741
722 742
722 743
722 747
723 724
723 725
723 726
723 727
723 728
723 729
723 730
723 736
723 738
723 739
723 740
723 742
723 743
723 747
723 748
723 803
723 804
723 805
723 812
724 725
724 726
724 727
724 728
724 729
724 730
724 736
724 737
724 738
724 739
724 740
724 741
724 742
724 743
724 744
724 745
724 746
724 747
724 748
725 726
725 727
725 728
725 729
725 730
725 736
725 737
725 739
725 743
725 747
725 748
726 727
726 728
726 729
726 730
726 736
726 737
726 739
726 743
726 744
726 745
726 746
726 747
726 748
727 728
727 729
727 730
727 736
727 737
727 738
727 739
727 740
727 741
727 742
727 743
727 744
727 745
727 746
727 747
727 748
727 803
727 804
727 805
727 812
728 729
728 730
728 736
728 737
728 739
728 743
728 744
728 745
728 746
728 748
729 730
729 736
729 737
729 738
729 739
729 740
729 741
729 742
729 743
729 744
729 745
729 746
729 747
729 748
730 736
730 737
730 738
730 739
730 740
730 741
730 742
730 743
730 744
730 745
730 746
730 747
730 748
730 803
730 804
730 805
730 812
731 735
732 735
733 735
734 735
736 737
736 743
736 747
736 748
737 738
737 739
737 740
737 741
737 742
737 743
737 744
737 745
737 746
737 747
737 748
737 803
737 804
737 805
737 812
738 739
738 740
738 741
738 742
738 743
738 803
738 804
738 805
738 812
739 740
739 741
739 742
739 743
739 744
739 745
739 746
739 748
740 741
740 742
740 743
740 803
740 804
740 805
740 812
741 742
742 743
742 803
742 804
742 805
742 812
743 744
743 745
743 746
743 747
743 748
743 803
743 804
743 805
743 812
744 745
744 746
745 746
747 748
749 750
750 751
750 752
754 755
756 757
757 771
758 759
760 761
760 762
760 763
761 762
761 763
762 763
764 765
766 767
766 768
767 768
769 770
771 1984
771 1985
771 1986
771 1987
771 1988
771 1989
771 1990
771 1991
771 1992
771 1993
771 1994
771 1995
771 1996
771 1997
771 1998
771 3305
772 773
772 774
772 775
772 776
773 774
773 775
773 776
774 775
774 776
775 776
777 778
777 779
777 780
777 781
777 782
777 783
778 779
778 780
778 781
778 782
778 783
779 780
779 781
779 782
779 783
780 781
780 782
780 783
781 782
781 783
782 783
784 785
784 786
785 786
789 790
789 791
790 791
792 793
792 794
793 794
794 1366
795 796
795 797
796 797
798 799
800 801
800 802
800 807
800 808
800 809
800 810
800 811
801 802
802 807
802 808
802 809
802 810
802 811
803 804
803 805
803 812
804 805
804 812
806 956
810 811
813 814
813 815
813 816
813 817
813 818
814 815
814 816
814 817
814 818
815 816
815 817
815 818
815 819
815 820
816 817
816 819
816 820
817 818
817 819
817 820
818 819
818 820
819 820
821 822
821 3446
823 824
825 826
825 827
826 827
828 842
830 831
830 832
830 833
830 834
830 835
830 836
830 837
831 832
831 833
832 833
833 2627
833 2628
834 835
836 837
838 839
838 840
839 840
843 844
843 845
844 845
848 849
848 850
848 851
848 852
849 850
849 851
849 852
850 851
850 852
851 852
853 854
855 856
855 857
855 858
855 859
855 860
855 861
855 862
855 863
855 864
855 865
855 866
855 867
855 868
855 869
855 870
855 871
855 872
855 873
855 874
855 875
855 876
855 877
855 878
855 879
855 880
855 881
855 882
855 883
855 884
855 885
855 886
856 857
856 858
856 859
856 860
856 861
856 862
856 863
856 864
856 865
856 866
856 867
856 868
856 869
856 870
856 871
856 872
856 873
856 874
856 875
856 876
856 877
856 878
856 879
856 880
856 881
856 882
856 883
856 884
856 885
856 886
857 858
857 859
857 860
857 861
857 862
857 863
857 864
857 865
857 866
857 867
857 868
857 869
857 870
857 871
857 872
857 873
857 874
857 875
857 876
857 877
857 878
857 879
857 880
857 881
857 882
857 883
857 884
857 885
857 886
858 859
858 860
858 861
858 862
858 863
858 864
858 865
858 866
858 867
858 868
858 869
858 870
858 871
858 872
858 873
858 874
858 875
858 876
858 877
858 878
858 879
858 880
858 881
858 882
858 883
858 884
858 885
858 886
859 860
859 861
859 862
859 863
859 864
859 865
859 866
859 867
859 868
859 869
859 870
859 871
859 872
859 873
859 874
859 875
859 876
859 877
859 878
859 879
859 880
859 881
859 882
859 883
859 884
859 885
859 886
860 861
860 862
860 863
860 864
860 865
860 866
860 867
860 868
860 869
860 870
860 871
860 872
860 873
860 874
860 875
860 876
860 877
860 878
860 879
860 880
860 881
860 882
860 883
860 884
860 885
860 886
861 862
861 863
861 864
861 865
861 866
861 867
861 868
861 869
861 870
861 871
861 872
861 873
861 874
861 875
861 876
861 877
861 878
861 879
861 880
861 881
861 882
861 883
861 884
861 885
861 886
861 1831
861 1832
862 863
862 864
862 865
862 866
862 867
862 868
862 869
862 870
862 871
862 872
862 873
862 874
862 875
862 876
862 877
862 878
862 879
862 880
862 881
862 882
862 883
862 884
862 885
862 886
863 864
863 865
863 866
863 867
863 868
863 869
863 870
863 871
863 872
863 873
863 874
863 875
863 876
863 877
863 878
863 879
863 880
863 881
863 882
863 883
863 884
863 885
863 886
864 865
864 866
864 867
864 868
864 869
864 870
864 871
864 872
864 873
864 874
864 875
864 876
864 877
864 878
864 879
864 880
864 881
864 882
864 883
864 884
864 885
864 886
864 1593
864 1594
864 1595
864 3186
864 3187
864 3188
864 3189
864 3190
864 3191
864 3192
864 3193
865 866
865 867
865 868
865 869
865 870
865 871
865 872
865 873
865 874
865 875
865 876
865 877
865 878
865 879
865 880
865 881
865 882
865 883
865 884
865 885
865 886
866 867
866 868
866 869
866 870
866 871
866 872
866 873
866 874
866 875
866 876
866 877
866 878
866 879
866 880
866 881
866 882
866 883
866 884
866 885
866 886
867 868
867 869
867 870
867 871
867 872
867 873
867 874
867 875
867 876
867 877
867 878
867 879
867 880
867 881
867 882
867 883
867 884
867 885
867 886
868 869
868 870
868 871
868 872
868 873
868 874
868 875
868 876
868 877
868 878
868 879
868 880
868 881
868 882
868 883
868 884
868 885
868 886
869 870
869 871
869 872
869 873
869 874
869 875
869 876
869 877
869 878
869 879
869 880
869 881
869 882
869 883
869 884
869 885
869 886
870 871
870 872
870 873
870 874
870 875
870 876
870 877
870 878
870 879
870 880
870 881
870 882
870 883
870 884
870 885
870 886
871 872
871 873
871 874
871 875
871 876
871 877
871 878
871 879
871 880
871 881
871 882
871 883
871 884
871 885
871 886
872 873
872 874
872 875
872 876
872 877
872 878
872 879
872 880
872 881
872 882
872 883
872 884
872 885
872 886
873 874
873 875
873 876
873 877
873 878
873 879
873 880
873 881
873 882
873 883
873 884
873 885
873 886
874 875
874 876
874 877
874 878
874 879
874 880
874 881
874 882
874 883
874 884
874 885
874 886
875 876
875 877
875 878
875 879
875 880
875 881
875 882
875 883
875 884
875 885
875 886
876 877
876 878
876 879
876 880
876 881
876 882
876 883
876 884
876 885
876 886
877 878
877 879
877 880
877 881
877 882
877 883
877 884
877 885
877 886
878 879
878 880
878 881
878 882
878 883
878 884
878 885
878 886
879 880
879 881
879 882
879 883
879 884
879 885
879 886
879 1593
879 1594
879 1595
880 881
880 882
880 883
880 884
880 885
880 886
881 882
881 883
881 884
881 885
881 886
882 883
882 884
882 885
882 886
883 884
883 885
883 886
884 885
884 886
885 886
887 888
887 889
887 890
887 891
887 892
887 893
887 894
887 895
888 889
888 890
888 891
888 892
888 893
888 894
888 895
889 890
889 891
889 892
889 893
889 894
889 895
890 891
890 892
890 893
890 894
891 892
891 893
891 894
891 895
892 893
892 894
892 895
893 894
893 895
894 895
896 897
898 899
898 900
899 900
901 902
901 903
901 904
901 905
901 906
902 903
902 904
902 905
902 906
903 904
903 905
903 906
904 905
904 906
905 906
907 908
907 909
907 910
907 911
907 912
907 913
907 914
907 915
907 916
907 917
907 918
907 919
907 920
907 921
907 922
908 909
908 910
908 911
908 912
908 913
908 914
908 915
908 916
908 917
908 918
908 919
908 920
908 921
908 922
909 910
909 911
909 912
909 913
909 914
909 915
909 916
909 917
909 918
909 919
909 920
909 921
909 922
910 911
910 912
910 913
910 914
910 915
910 916
910 917
910 918
910 919
910 920
910 921
910 922
911 912
911 913
911 914
911 915
911 916
911 917
911 918
911 919
911 920
911 921
911 922
912 913
912 914
912 915
912 916
912 917
912 918
912 919
912 920
912 921
912 922
913 914
913 915
913 916
913 917
913 918
913 919
913 920
913 921
913 922
914 915
914 916
914 917
914 918
914 919
914 920
914 921
914 922
915 916
915 917
915 918
915 919
915 920
915 921
915 922
916 917
916 918
916 919
916 920
916 921
916 922
917 918
917 919
917 920
917 921
917 922
918 919
918 920
918 921
918 922
919 920
919 921
919 922
920 921
920 922
921 922
923 924
923 925
923 926
923 927
923 928
923 2344
923 2850
923 2851
923 2853
924 925
924 926
924 927
924 928
924 2845
924 2846
924 2847
924 2848
924 2849
924 2850
924 2851
924 2852
924 2853
925 926
925 927
925 928
925 2344
925 2845
925 2846
925 2847
925 2848
925 2849
925 2851
925 2852
925 2853
926 927
926 928
926 2344
926 2850
926 2851
926 2852
927 928
927 2344
927 2850
927 2851
927 2852
927 2853
928 2344
928 2845
928 2846
928 2847
928 2848
928 2849
928 2850
928 2852
928 2853
929 930
929 931
929 932
929 933
929 934
929 935
929 936
929 2973
929 2974
929 2975
929 2976
929 2977
930 931
930 932
930 933
930 934
930 935
930 936
930 2973
930 2974
930 2975
930 2976
930 2977
931 932
931 933
931 934
931 935
931 936
931 2973
931 2974
931 2975
931 2976
931 2977
932 933
932 934
932 935
932 936
933 934
933 935
933 936
934 935
934 936
935 936
937 938
939 940
939 941
940 941
942 943
942 944
942 945
942 946
942 947
942 948
943 944
943 945
943 948
944 945
944 946
944 947
944 948
945 946
945 947
949 950
949 951
949 952
949 953
950 951
950 952
950 953
950 954
950 955
951 952
951 954
951 955
952 953
953 954
953 955
954 955
957 978
957 979
959 960
961 962
961 963
961 964
963 964
965 966
965 967
965 978
966 967
966 978
968 969
968 970
969 970
972 973
974 975
974 976
975 976
978 979
997 998
997 999
997 1000
997 1004
997 1005
997 1006
997 1007
997 3626
998 999
998 1000
998 1001
998 1004
998 1005
998 1006
998 3626
999 1001
1000 1001
1000 1007
1001 1003
1001 1004
1001 1005
1001 1006
1001 1007
1002 1003
1002 1004
1002 3626
1003 1004
1003 1006
1003 3626
1005 1007
1006 1007
1008 1009
1008 1010
1008 1011
1009 1010
1009 1011
1009 1012
1010 1011
1010 1012
1011 1012
1013 1014
1013 1015
1013 1016
1014 1015
1014 1016
1015 1016
1023 1024
1023 1025
1023 1026
1024 1025
1024 1026
1025 1026
1027 1028
1027 1029
1027 1030
1027 1031
1027 1032
1027 1033
1027 1034
1027 1035
1027 1036
1027 1037
1027 1038
1027 1039
1027 1040
1027 1041
1027 1042
1027 1043
1027 1044
1027 1045
1027 1046
1027 1047
1027 1048
1027 1049
1027 1050
1027 1051
1027 1052
1027 1053
1027 1054
1027 1055
1027 1056
1027 1057
1028 1029
1028 1030
1028 1031
1028 1032
1028 1033
1028 1034
1028 1035
1028 1036
1028 1037
1028 1038
1028 1039
1028 1040
1028 1041
1028 1042
1028 1043
1028 1044
1028 1045
1028 1046
1028 1047
1028 1048
1028 1049
1028 1050
1028 1051
1028 1052
1028 1053
1028 1054
1028 1055
1028 1056
1028 1057
1029 1030
1029 1031
1029 1032
1029 1033
1029 1034
1029 1035
1029 1036
1029 1037
1029 1038
1029 1039
1029 1040
1029 1041
1029 1042
1029 1043
1029 1044
1029 1045
1029 1046
1029 1047
1029 1048
1029 1049
1029 1050
1029 1051
1029 1052
1029 1053
1029 1054
1029 1055
1029 1056
1029 1057
1030 1031
1030 1032
1030 1033
1030 1034
1030 1035
1030 1036
1030 1037
1030 1038
1030 1039
1030 1040
1030 1041
1030 1042
1030 1043
1030 1044
1030 1045
1030 1046
1030 1047
1030 1048
1030 1049
1030 1050
1030 1051
1030 1052
1030 1053
1030 1054
1030 1055
1030 1056
1030 1057
1031 1032
1031 1033
1031 1034
1031 1035
1031 1036
1031 1037
1031 1038
1031 1039
1031 1040
1031 1041
1031 1042
1031 1043
1031 1044
1031 1045
1031 1046
1031 1047
1031 1048
1031 1049
1031 1050
1031 1051
1031 1052
1031 1053
1031 1054
1031 1055
1031 1056
1031 1057
1032 1033
1032 1034
1032 1035
1032 1036
1032 1037
1032 1038
1032 1039
1032 1040
1032 1041
1032 1042
1032 1043
1032 1044
1032 1045
1032 1046
1032 1047
1032 1048
1032 1049
1032 1050
1032 1051
1032 1052
1032 1053
1032 1054
1032 1055
1032 1056
1032 1057
1033 1034
1033 1035
1033 1036
1033 1037
1033 1038
1033 1039
1033 1040
1033 1041
1033 1042
1033 1043
1033 1044
1033 1045
1033 1046
1033 1047
1033 1048
1033 1049
1033 1050
1033 1051
1033 1052
1033 1053
1033 1054
1033 1055
1033 1056
1033 1057
1034 1035
1034 1036
1034 1037
1034 1038
1034 1039
1034 1040
1034 1041
1034 1042
1034 1043
1034 1044
1034 1045
1034 1046
1034 1047
1034 1048
1034 1049
1034 1050
1034 1051
1034 1052
1034 1053
1034 1054
1034 1055
1034 1056
1034 1057
1035 1036
1035 1037
1035 1038
1035 1039
1035 1040
1035 1041
1035 1042
1035 1043
1035 1044
1035 1045
1035 1046
1035 1047
1035 1048
1035 1049
1035 1050
1035 1051
1035 1052
1035 1053
1035 1054
1035 1055
1035 1056
1035 1057
1036 1037
1036 1038
1036 1039
1036 1040
1036 1041
1036 1042
1036 1043
1036 1044
1036 1045
1036 1046
1036 1047
1036 1048
1036 1049
1036 1050
1036 1051
1036 1052
1036 1053
1036 1054
1036 1055
1036 1056
1036 1057
1037 1038
1037 1039
1037 1040
1037 1041
1037 1042
1037 1043
1037 1044
1037 1045
1037 1046
1037 1047
1037 1048
1037 1049
1037 1050
1037 1051
1037 1052
1037 1053
1037 1054
1037 1055
1037 1056
1037 1057
1038 1039
1038 1040
1038 1041
1038 1042
1038 1043
1038 1044
1038 1045
1038 1046
1038 1047
1038 1048
1038 1049
1038 1050
1038 1051
1038 1052
1038 1053
1038 1054
1038 1055
1038 1056
1038 1057
1039 1040
1039 1041
1039 1042
1039 1043
1039 1044
1039 1045
1039 1046
1039 1047
1039 1048
1039 1049
1039 1050
1039 1051
1039 1052
1039 1053
1039 1054
1039 1055
1039 1056
1039 1057
1040 1041
1040 1042
1040 1043
1040 1044
1040 1045
1040 1046
1040 1047
1040 1048
1040 1049
1040 1050
1040 1051
1040 1052
1040 1053
1040 1054
1040 1055
1040 1056
1040 1057
1041 1042
1041 1043
1041 1044
1041 1045
1041 1046
1041 1047
1041 1048
1041 1049
1041 1050
1041 1051
1041 1052
1041 1053
1041 1054
1041 1055
1041 1056
1041 1057
1042 1043
1042 1044
1042 1045
1042 1046
1042 1047
1042 1048
1042 1049
1042 1050
1042 1051
1042 1052
1042 1053
1042 1054
1042 1055
1042 1056
1042 1057
1043 1044
1043 1045
1043 1046
1043 1047
1043 1048
1043 1049
1043 1050
1043 1051
1043 1052
1043 1053
1043 1054
1043 1055
1043 1056
1043 1057
1044 1045
1044 1046
1044 1047
1044 1048
1044 1049
1044 1050
1044 1051
1044 1052
1044 1053
1044 1054
1044 1055
1044 1056
1044 1057
1045 1046
1045 1047
1045 1048
1045 1049
1045 1050
1045 1051
1045 1052
1045 1053
1045 1054
1045 1055
1045 1056
1045 1057
1046 1047
1046 1048
1046 1049
1046 1050
1046 1051
1046 1052
1046 1053
1046 1054
1046 1055
1046 1056
1046 1057
1047 1048
1047 1049
1047 1050
1047 1051
1047 1052
1047 1053
1047 1054
1047 1055
1047 1056
1047 1057
1048 1049
1048 1050
1048 1051
1048 1052
1048 1053
1048 1054
1048 1055
1048 1056
1048 1057
1049 1050
1049 1051
1049 1052
1049 1053
1049 1054
1049 1055
1049 1056
1049 1057
1050 1051
1050 1052
1050 1053
1050 1054
1050 1055
1050 1056
1050 1057
1051 1052
1051 1053
1051 1054
1051 1055
1051 1056
1051 1057
1052 1053
1052 1054
1052 1055
1052 1056
1052 1057
1053 1054
1053 1055
1053 1056
1053 1057
1054 1055
1054 1056
1054 1057
1055 1056
1055 1057
1056 1057
1058 1059
1058 1060
1058 1061
1058 1062
1058 1063
1058 1064
1058 1065
1058 1066
1058 1067
1058 1068
1058 1069
1058 1070
1058 1071
1058 1072
1058 1073
1058 1074
1058 1075
1058 1076
1058 1077
1058 1078
1058 1079
1058 1080
1058 1081
1058 1082
1058 1083
1058 1084
1058 1085
1058 1086
1058 1087
1058 1088
1058 1089
1058 1090
1058 1091
1058 1092
1058 1093
1058 1094
1058 1095
1058 1096
1058 1097
1058 1098
1058 1099
1058 1100
1058 1101
1058 1102
1058 1103
1058 1104
1058 1105
1058 1106
1058 1107
1058 1108
1058 1109
1058 1110
1058 1111
1059 1060
1059 1061
1059 1062
1059 1063
1059 1064
1059 1065
1059 1066
1059 1067
1059 1068
1059 1069
1059 1070
1059 1071
1059 1072
1059 1073
1059 1074
1059 1075
1059 1076
1059 1077
1059 1078
1059 1079
1059 1080
1059 1081
1059 1082
1059 1083
1059 1084
1059 1085
1059 1086
1059 1087
1059 1088
1059 1089
1059 1090
1059 1091
1059 1092
1059 1093
1059 1094
1059 1095
1059 1096
1059 1097
1059 1098
1059 1099
1059 1100
1059 1101
1059 1102
1059 1103
1059 1104
1059 1105
1059 1106
1059 1107
1059 1108
1059 1109
1059 1110
1059 1111
1060 1061
1060 1062
1060 1063
1060 1064
1060 1065
1060 1066
1060 1067
1060 1068
1060 1069
1060 1070
1060 1071
1060 1072
1060 1073
1060 1074
1060 1075
1060 1076
1060 1077
1060 1078
1060 1079
1060 1080
1060 1081
1060 1082
1060 1083
1060 1084
1060 1085
1060 1086
1060 1087
1060 1088
1060 1089
1060 1090
1060 1091
1060 1092
1060 1093
1060 1094
1060 1095
1060 1096
1060 1097
1060 1098
1060 1099
1060 1100
1060 1101
1060 1102
1060 1103
1060 1104
1060 1105
1060 1106
1060 1107
1060 1108
1060 1109
1060 1110
1060 1111
1061 1062
1061 1063
1061 1064
1061 1065
1061 1066
1061 1067
1061 1068
1061 1069
1061 1070
1061 1071
1061 1072
1061 1073
1061 1074
1061 1075
1061 1076
1061 1077
1061 1078
1061 1079
1061 1080
1061 1081
1061 1082
1061 1083
1061 1084
1061 1085
1061 1086
1061 1087
1061 1088
1061 1089
1061 1090
1061 1091
1061 1092
1061 1093
1061 1094
1061 1095
1061 1096
1061 1097
1061 1098
1061 1099
1061 1100
1061 1101
1061 1102
1061 1103
1061 1104
1061 1105
1061 1106
1061 1107
1061 1108
1061 1109
1061 1110
1061 1111
1062 1063
1062 1064
1062 1065
1062 1066
1062 1067
1062 1068
1062 1069
1062 1070
1062 1071
1062 1072
1062 1073
1062 1074
1062 1075
1062 1076
1062 1077
1062 1078
1062 1079
1062 1080
1062 1081
1062 1082
1062 1083
1062 1084
1062 1085
1062 1086
1062 1087
1062 1088
1062 1089
1062 1090
1062 1091
1062 1092
1062 1093
1062 1094
1062 1095
1062 1096
1062 1097
1062 1098
1062 1099
1062 1100
1062 1101
1062 1102
1062 1103
1062 1104
1062 1105
1062 1106
1062 1107
1062 1108
1062 1109
1062 1110
1062 1111
1063 1064
1063 1065
1063 1066
1063 1067
1063 1068
1063 1069
1063 1070
1063 1071
1063 1072
1063 1073
1063 1074
1063 1075
1063 1076
1063 1077
1063 1078
1063 1079
1063 1080
1063 1081
1063 1082
1063 1083
1063 1084
1063 1085
1063 1086
1063 1087
1063 1088
1063 1089
1063 1090
1063 1091
1063 1092
1063 1093
1063 1094
1063 1095
1063 1096
1063 1097
1063 1098
1063 1099
1063 1100
1063 1101
1063 1102
1063 1103
1063 1104
1063 1105
1063 1106
1063 1107
1063 1108
1063 1109
1063 1110
1063 1111
1064 1065
1064 1066
1064 1067
1064 1068
1064 1069
1064 1070
1064 1071
1064 1072
1064 1073
1064 1074
1064 1075
1064 1076
1064 1077
1064 1078
1064 1079
1064 1080
1064 1081
1064 1082
1064 1083
1064 1084
1064 1085
1064 1086
1064 1087
1064 1088
1064 1089
1064 1090
1064 1091
1064 1092
1064 1093
1064 1094
1064 1095
1064 1096
1064 1097
1064 1098
1064 1099
1064 1100
1064 1101
1064 1102
1064 1103
1064 1104
1064 1105
1064 1106
1064 1107
1064 1108
1064 1109
1064 1110
1064 1111
1065 1066
1065 1067
1065 1068
1065 1069
1065 1070
1065 1071
1065 1072
1065 1073
1065 1074
1065 1075
1065 1076
1065 1077
1065 1078
1065 1079
1065 1080
1065 1081
1065 1082
1065 1083
1065 1084
1065 1085
1065 1086
1065 1087
1065 1088
1065 1089
1065 1090
1065 1091
1065 1092
1065 1093
1065 1094
1065 1095
1065 1096
1065 1097
1065 1098
1065 1099
1065 1100
1065 1101
1065 1102
1065 1103
1065 1104
1065 1105
1065 1106
1065 1107
1065 1108
1065 1109
1065 1110
1065 1111
1066 1067
1066 1068
1066 1069
1066 1070
1066 1071
1066 1072
1066 1073
1066 1074
1066 1075
1066 1076
1066 1077
1066 1078
1066 1079
1066 1080
1066 1081
1066 1082
1066 1083
1066 1084
1066 1085
1066 1086
1066 1087
1066 1088
1066 1089
1066 1090
1066 1091
1066 1092
1066 1093
1066 1094
1066 1095
1066 1096
1066 1097
1066 1098
1066 1099
1066 1100
1066 1101
1066 1102
1066 1103
1066 1104
1066 1105
1066 1106
1066 1107
1066 1108
1066 1109
1066 1110
1066 1111
1067 1068
1067 1069
1067 1070
1067 1071
1067 1072
1067 1073
1067 1074
1067 1075
1067 1076
1067 1077
1067 1078
1067 1079
1067 1080
1067 1081
1067 1082
1067 1083
1067 1084
1067 1085
1067 1086
1067 1087
1067 1088
1067 1089
1067 1090
1067 1091
1067 1092
1067 1093
1067 1094
1067 1095
1067 1096
1067 1097
1067 1098
1067 1099
1067 1100
1067 1101
1067 1102
1067 1103
1067 1104
1067 1105
1067 1106
1067 1107
1067 1108
1067 1109
1067 1110
1067 1111
1068 1069
1068 1070
1068 1071
1068 1072
1068 1073
1068 1074
1068 1075
1068 1076
1068 1077
1068 1078
1068 1079
1068 1080
1068 1081
1068 1082
1068 1083
1068 1084
1068 1085
1068 1086
1068 1087
1068 1088
1068 1089
1068 1090
1068 1091
1068 1092
1068 1093
1068 1094
1068 1095
1068 1096
1068 1097
1068 1098
1068 1099
1068 1100
1068 1101
1068 1102
1068 1103
1068 1104
1068 1105
1068 1106
1068 1107
1068 1108
1068 1109
1068 1110
1068 1111
1069 1070
1069 1071
1069 1072
1069 1073
1069 1074
1069 1075
1069 1076
1069 1077
1069 1078
1069 1079
1069 1080
1069 1081
1069 1082
1069 1083
1069 1084
1069 1085
1069 1086
1069 1087
1069 1088
1069 1089
1069 1090
1069 1091
1069 1092
1069 1093
1069 1094
1069 1095
1069 1096
1069 1097
1069 1098
1069 1099
1069 1100
1069 1101
1069 1102
1069 1103
1069 1104
1069 1105
1069 1106
1069 1107
1069 1108
1069 1109
1069 1110
1069 1111
1070 1071
1070 1072
1070 1073
1070 1074
1070 1075
1070 1076
1070 1077
1070 1078
1070 1079
1070 1080
1070 1081
1070 1082
1070 1083
1070 1084
1070 1085
1070 1086
1070 1087
1070 1088
1070 1089
1070 1090
1070 1091
1070 1092
1070 1093
1070 1094
1070 1095
1070 1096
1070 1097
1070 1098
1070 1099
1070 1100
1070 1101
1070 1102
1070 1103
1070 1104
1070 1105
1070 1106
1070 1107
1070 1108
1070 1109
1070 1110
1070 1111
1071 1072
1071 1073
1071 1074
1071 1075
1071 1076
1071 1077
1071 1078
1071 1079
1071 1080
1071 1081
1071 1082
1071 1083
1071 1084
1071 1085
1071 1086
1071 1087
1071 1088
1071 1089
1071 1090
1071 1091
1071 1092
1071 1093
1071 1094
1071 1095
1071 1096
1071 1097
1071 1098
1071 1099
1071 1100
1071 1101
1071 1102
1071 1103
1071 1104
1071 1105
1071 1106
1071 1107
1071 1108
1071 1109
1071 1110
1071 1111
1072 1073
1072 1074
1072 1075
1072 1076
1072 1077
1072 1078
1072 1079
1072 1080
1072 1081
1072 1082
1072 1083
1072 1084
1072 1085
1072 1086
1072 1087
1072 1088
1072 1089
1072 1090
1072 1091
1072 1092
1072 1093
1072 1094
1072 1095
1072 1096
1072 1097
1072 1098
1072 1099
1072 1100
1072 1101
1072 1102
1072 1103
1072 1104
1072 1105
1072 1106
1072 1107
1072 1108
1072 1109
1072 1110
1072 1111
1073 1074
1073 1075
1073 1076
1073 1077
1073 1078
1073 1079
1073 1080
1073 1081
1073 1082
1073 1083
1073 1084
1073 1085
1073 1086
1073 1087
1073 1088
1073 1089
1073 1090
1073 1091
1073 1092
1073 1093
1073 1094
1073 1095
1073 1096
1073 1097
1073 1098
1073 1099
1073 1100
1073 1101
1073 1102
1073 1103
1073 1104
1073 1105
1073 1106
1073 1107
1073 1108
1073 1109
1073 1110
1073 1111
1074 1075
1074 1076
1074 1077
1074 1078
1074 1079
1074 1080
1074 1081
1074 1082
1074 1083
1074 1084
1074 1085
1074 1086
1074 1087
1074 1088
1074 1089
1074 1090
1074 1091
1074 1092
1074 1093
1074 1094
1074 1095
1074 1096
1074 1097
1074 1098
1074 1099
1074 1100
1074 1101
1074 1102
1074 1103
1074 1104
1074 1105
1074 1106
1074 1107
1074 1108
1074 1109
1074 1110
1074 1111
1075 1076
1075 1077
1075 1078
1075 1079
1075 1080
1075 1081
1075 1082
1075 1083
1075 1084
1075 1085
1075 1086
1075 1087
1075 1088
1075 1089
1075 1090
1075 1091
1075 1092
1075 1093
1075 1094
1075 1095
1075 1096
1075 1097
1075 1098
1075 1099
1075 1100
1075 1101
1075 1102
1075 1103
1075 1104
1075 1105
1075 1106
1075 1107
1075 1108
1075 1109
1075 1110
1075 1111
1076 1077
1076 1078
1076 1079
1076 1080
1076 1081
1076 1082
1076 1083
1076 1084
1076 1085
1076 1086
1076 1087
1076 1088
1076 1089
1076 1090
1076 1091
1076 1092
1076 1093
1076 1094
1076 1095
1076 1096
1076 1097
1076 1098
1076 1099
1076 1100
1076 1101
1076 1102
1076 1103
1076 1104
1076 1105
1076 1106
1076 1107
1076 1108
1076 1109
1076 1110
1076 1111
1077 1078
1077 1079
1077 1080
1077 1081
1077 1082
1077 1083
1077 1084
1077 1085
1077 1086
1077 1087
1077 1088
1077 1089
1077 1090
1077 1091
1077 1092
1077 1093
1077 1094
1077 1095
1077 1096
1077 1097
1077 1098
1077 1099
1077 1100
1077 1101
1077 1102
1077 1103
1077 1104
1077 1105
1077 1106
1077 1107
1077 1108
1077 1109
1077 1110
1077 1111
1078 1079
1078 1080
1078 1081
1078 1082
1078 1083
1078 1084
1078 1085
1078 1086
1078 1087
1078 1088
1078 1089
1078 1090
1078 1091
1078 1092
1078 1093
1078 1094
1078 1095
1078 1096
1078 1097
1078 1098
1078 1099
1078 1100
1078 1101
1078 1102
1078 1103
1078 1104
1078 1105
1078 1106
1078 1107
1078 1108
1078 1109
1078 1110
1078 1111
1079 1080
1079 1081
1079 1082
1079 1083
1079 1084
1079 1085
1079 1086
1079 1087
1079 1088
1079 1089
1079 1090
1079 1091
1079 1092
1079 1093
1079 1094
1079 1095
1079 1096
1079 1097
1079 1098
1079 1099
1079 1100
1079 1101
1079 1102
1079 1103
1079 1104
1079 1105
1079 1106
1079 1107
1079 1108
1079 1109
1079 1110
1079 1111
1080 1081
1080 1082
1080 1083
1080 1084
1080 1085
1080 1086
1080 1087
1080 1088
1080 1089
1080 1090
1080 1091
1080 1092
1080 1093
1080 1094
1080 1095
1080 1096
1080 1097
1080 1098
1080 1099
1080 1100
1080 1101
1080 1102
1080 1103
1080 1104
1080 1105
1080 1106
1080 1107
1080 1108
1080 1109
1080 1110
1080 1111
1081 1082
1081 1083
1081 1084
1081 1085
1081 1086
1081 1087
1081 1088
1081 1089
1081 1090
1081 1091
1081 1092
1081 1093
1081 1094
1081 1095
1081 1096
1081 1097
1081 1098
1081 1099
1081 1100
1081 1101
1081 1102
1081 1103
1081 1104
1081 1105
1081 1106
1081 1107
1081 1108
1081 1109
1081 1110
1081 1111
1082 1083
1082 1084
1082 1085
1082 1086
1082 1087
1082 1088
1082 1089
1082 1090
1082 1091
1082 1092
1082 1093
1082 1094
1082 1095
1082 1096
1082 1097
1082 1098
1082 1099
1082 1100
1082 1101
1082 1102
1082 1103
1082 1104
1082 1105
1082 1106
1082 1107
1082 1108
1082 1109
1082 1110
1082 1111
1083 1084
1083 1085
1083 1086
1083 1087
1083 1088
1083 1089
1083 1090
1083 1091
1083 1092
1083 1093
1083 1094
1083 1095
1083 1096
1083 1097
1083 1098
1083 1099
1083 1100
1083 1101
1083 1102
1083 1103
1083 1104
1083 1105
1083 1106
1083 1107
1083 1108
1083 1109
1083 1110
1083 1111
1084 1085
1084 1086
1084 1087
1084 1088
1084 1089
1084 1090
1084 1091
1084 1092
1084 1093
1084 1094
1084 1095
1084 1096
1084 1097
1084 1098
1084 1099
1084 1100
1084 1101
1084 1102
1084 1103
1084 1104
1084 1105
1084 1106
1084 1107
1084 1108
1084 1109
1084 1110
1084 1111
1085 1086
1085 1087
1085 1088
1085 1089
1085 1090
1085 1091
1085 1092
1085 1093
1085 1094
1085 1095
1085 1096
1085 1097
1085 1098
1085 1099
1085 1100
1085 1101
1085 1102
1085 1103
1085 1104
1085 1105
1085 1106
1085 1107
1085 1108
1085 1109
1085 1110
1085 1111
1086 1087
1086 1088
1086 1089
1086 1090
1086 1091
1086 1092
1086 1093
1086 1094
1086 1095
1086 1096
1086 1097
1086 1098
1086 1099
1086 1100
1086 1101
1086 1102
1086 1103
1086 1104
1086 1105
1086 1106
1086 1107
1086 1108
1086 1109
1086 1110
1086 1111
1087 1088
1087 1089
1087 1090
1087 1091
1087 1092
1087 1093
1087 1094
1087 1095
1087 1096
1087 1097
1087 1098
1087 1099
1087 1100
1087 1101
1087 1102
1087 1103
1087 1104
1087 1105
1087 1106
1087 1107
1087 1108
1087 1109
1087 1110
1087 1111
1088 1089
1088 1090
1088 1091
1088 1092
1088 1093
1088 1094
1088 1095
1088 1096
1088 1097
1088 1098
1088 1099
1088 1100
1088 1101
1088 1102
1088 1103
1088 1104
1088 1105
1088 1106
1088 1107
1088 1108
1088 1109
1088 1110
1088 1111
1089 1090
1089 1091
1089 1092
1089 1093
1089 1094
1089 1095
1089 1096
1089 1097
1089 1098
1089 1099
1089 1100
1089 1101
1089 1102
1089 1103
1089 1104
1089 1105
1089 1106
1089 1107
1089 1108
1089 1109
1089 1110
1089 1111
1090 1091
1090 1092
1090 1093
1090 1094
1090 1095
1090 1096
1090 1097
1090 1098
1090 1099
1090 1100
1090 1101
1090 1102
1090 1103
1090 1104
1090 1105
1090 1106
1090 1107
1090 1108
1090 1109
1090 1110
1090 1111
1091 1092
1091 1093
1091 1094
1091 1095
1091 1096
1091 1097
1091 1098
1091 1099
1091 1100
1091 1101
1091 1102
1091 1103
1091 1104
1091 1105
1091 1106
1091 1107
1091 1108
1091 1109
1091 1110
1091 1111
1092 1093
1092 1094
1092 1095
1092 1096
1092 1097
1092 1098
1092 1099
1092 1100
1092 1101
1092 1102
1092 1103
1092 1104
1092 1105
1092 1106
1092 1107
1092 1108
1092 1109
1092 1110
1092 1111
1093 1094
1093 1095
1093 1096
1093 1097
1093 1098
1093 1099
1093 1100
1093 1101
1093 1102
1093 1103
1093 1104
1093 1105
1093 1106
1093 1107
1093 1108
1093 1109
1093 1110
1093 1111
1094 1095
1094 1096
1094 1097
1094 1098
1094 1099
1094 1100
1094 1101
1094 1102
1094 1103
1094 1104
1094 1105
1094 1106
1094 1107
1094 1108
1094 1109
1094 1110
1094 1111
1095 1096
1095 1097
1095 1098
1095 1099
1095 1100
1095 1101
1095 1102
1095 1103
1095 1104
1095 1105
1095 1106
1095 1107
1095 1108
1095 1109
1095 1110
1095 1111
1096 1097
1096 1098
1096 1099
1096 1100
1096 1101
1096 1102
1096 1103
1096 1104
1096 1105
1096 1106
1096 1107
1096 1108
1096 1109
1096 1110
1096 1111
1097 1098
1097 1099
1097 1100
1097 1101
1097 1102
1097 1103
1097 1104
1097 1105
1097 1106
1097 1107
1097 1108
1097 1109
1097 1110
1097 1111
1098 1099
1098 1100
1098 1101
1098 1102
1098 1103
1098 1104
1098 1105
1098 1106
1098 1107
1098 1108
1098 1109
1098 1110
1098 1111
1099 1100
1099 1101
1099 1102
1099 1103
1099 1104
1099 1105
1099 1106
1099 1107
1099 1108
1099 1109
1099 1110
1099 1111
1100 1101
1100 1102
1100 1103
1100 1104
1100 1105
1100 1106
1100 1107
1100 1108
1100 1109
1100 1110
1100 1111
1101 1102
1101 1103
1101 1104
1101 1105
1101 1106
1101 1107
1101 1108
1101 1109
1101 1110
1101 1111
1102 1103
1102 1104
1102 1105
1102 1106
1102 1107
1102 1108
1102 1109
1102 1110
1102 1111
1103 1104
1103 1105
1103 1106
1103 1107
1103 1108
1103 1109
1103 1110
1103 1111
1104 1105
1104 1106
1104 1107
1104 1108
1104 1109
1104 1110
1104 1111
1105 1106
1105 1107
1105 1108
1105 1109
1105 1110
1105 1111
1106 1107
1106 1108
1106 1109
1106 1110
1106 1111
1107 1108
1107 1109
1107 1110
1107 1111
1108 1109
1108 1110
1108 1111
1109 1110
1109 1111
1110 1111
1112 1113
1112 1114
1114 1115
1114 1116
1114 1490
1114 1491
1114 1497
1114 1498
1115 1116
1117 1118
1119 1120
1119 1121
1119 1192
1119 1193
1120 1121
1120 1191
1120 1193
1120 1206
1121 1191
1121 1192
1121 1206
1122 1123
1122 1124
1122 1125
1122 1126
1122 2397
1122 3175
1123 1124
1123 1126
1124 1125
1125 1126
1127 1128
1127 1129
1128 1129
1130 1131
1130 1132
1130 1133
1131 1132
1131 1133
1132 1133
1134 1135
1136 1137
1136 1138
1137 1138
1139 1140
1139 1141
1139 1142
1139 1143
1139 1144
1139 1145
1139 1146
1139 1147
1139 1148
1139 1149
1139 1150
1139 1151
1139 1152
1139 1153
1139 1154
1139 1635
1139 1636
1140 1141
1140 1142
1140 1143
1140 1144
1140 1145
1140 1146
1140 1147
1140 1148
1140 1149
1140 1150
1140 1151
1140 1152
1140 1153
1140 1154
1141 1142
1141 1143
1141 1144
1141 1145
1141 1146
1141 1147
1141 1148
1141 1149
1141 1150
1141 1151
1141 1152
1141 1153
1141 1154
1142 1143
1142 1144
1142 1145
1142 1146
1142 1147
1142 1148
1142 1149
1142 1150
1142 1151
1142 1152
1142 1153
1142 1154
1143 1144
1143 1145
1143 1146
1143 1147
1143 1148
1143 1149
1143 1150
1143 1151
1143 1152
1143 1153
1143 1154
1144 1145
1144 1146
1144 1147
1144 1148
1144 1149
1144 1150
1144 1151
1144 1152
1144 1153
1144 1154
1145 1146
1145 1147
1145 1148
1145 1149
1145 1150
1145 1151
1145 1152
1145 1153
1145 1154
1146 1147
1146 1148
1146 1149
1146 1150
1146 1151
1146 1152
1146 1153
1146 1154
1147 1148
1147 1149
1147 1150
1147 1151
1147 1152
1147 1153
1147 1154
1147 1635
1147 1636
1148 1149
1148 1150
1148 1151
1148 1152
1148 1153
1148 1154
1149 1150
1149 1151
1149 1152
1149 1153
1149 1154
1150 1151
1150 1152
1150 1153
1150 1154
1151 1152
1151 1153
1151 1154
1152 1153
1152 1154
1153 1154
1155 1156
1155 1157
1155 1158
1155 1159
1156 1157
1156 1158
1156 1159
1156 1170
1156 1171
1156 1173
1156 3394
1156 3395
1157 1158
1157 1159
1157 1170
1157 1171
1157 1172
1157 1173
1157 1174
1157 2811
1157 3395
1158 1159
1159 1170
1159 1171
1159 1172
1159 1173
1159 1174
1159 2811
1159 2812
1159 2813
1159 3394
1159 3395
1160 1161
1162 1163
1164 1165
1166 1167
1168 1169
1170 1171
1170 1172
1170 1173
1170 1174
1170 2811
1170 3394
1170 3395
1172 1173
1173 1174
1173 2811
1173 2812
1173 2813
1173 3394
1175 1176
1175 1177
1175 1178
1175 1487
1175 1488
1175 1489
1176 1177
1176 1178
1177 1178
1179 1180
1179 1182
1179 1184
1179 1185
1179 1225
1179 1226
1179 1227
1179 1228
1179 1229
1179 1230
1179 1231
1179 1232
1181 1182
1181 1184
1181 1186
1182 1183
1182 1233
1182 1234
1187 1188
1189 1190
1191 1192
1191 1193
1192 1193
1192 1206
1193 1206
1194 1195
1194 1196
1194 1197
1194 1198
1194 1199
1194 1200
1194 1333
1194 1334
1194 1335
1194 1336
1194 1337
1194 1338
1194 1339
1194 1842
1194 1846
1194 2257
1194 2259
1194 2260
1194 2261
1194 2634
1194 2894
1194 2910
1194 2913
1194 2914
1194 2915
1194 2917
1194 2925
1194 2928
1194 2932
1194 2933
1194 2934
1194 2935
1194 2936
1194 2937
1194 2938
1194 2939
1194 2940
1194 2941
1194 2942
1194 2943
1194 2944
1194 2945
1194 2946
1194 2947
1194 2948
1194 2952
1194 2953
1194 2954
1194 2955
1194 2958
1194 2959
1194 2960
1194 2961
1194 2962
1194 2987
1194 2988
1194 2989
1194 2990
1194 2991
1194 2992
1194 2993
1194 2994
1194 2996
1194 2997
1194 2999
1194 3000
1194 3001
1194 3002
1194 3004
1194 3005
1194 3006
1195 1196
1195 1197
1195 1198
1195 1199
1195 1200
1195 1333
1195 1334
1195 1335
1195 1336
1195 1337
1195 1338
1195 1339
1195 1842
1195 1846
1195 2257
1195 2259
1195 2260
1195 2261
1195 2634
1195 2894
1195 2910
1195 2913
1195 2914
1195 2915
1195 2917
1195 2925
1195 2928
1195 2932
1195 2933
1195 2934
1195 2935
1195 2936
1195 2937
1195 2938
1195 2940
1195 2943
1195 2944
1195 2945
1195 2947
1195 2948
1195 2952
1195 2954
1195 2955
1195 2958
1195 2959
1195 2960
1195 2961
1195 2962
1195 2987
1195 2988
1195 2989
1195 2990
1195 2991
1195 2992
1195 2993
1195 2994
1195 2996
1195 2997
1195 2999
1195 3000
1195 3001
1195 3002
1195 3004
1195 3005
1195 3006
1196 1197
1196 1198
1196 1199
1196 1200
1197 1198
1197 1199
1197 1200
1198 1199
1198 1200
1198 1333
1198 1334
1198 1335
1198 1336
1198 1337
1198 1338
1198 1339
1198 1842
1198 1846
1198 2257
1198 2259
1198 2260
1198 2261
1198 2634
1198 2894
1198 2910
1198 2913
1198 2914
1198 2915
1198 2917
1198 2925
1198 2928
1198 2932
1198 2933
1198 2934
1198 2935
1198 2936
1198 2937
1198 2938
1198 2939
1198 2940
1198 2941
1198 2942
1198 2943
1198 2944
1198 2945
1198 2946
1198 2947
1198 2948
1198 2952
1198 2953
1198 2954
1198 2955
1198 2958
1198 2959
1198 2960
1198 2961
1198 2962
1198 2987
1198 2988
1198 2989
1198 2990
1198 2991
1198 2992
1198 2993
1198 2994
1198 2996
1198 2997
1198 2999
1198 3000
1198 3001
1198 3002
1198 3004
1198 3005
1198 3006
1199 1200
1199 1333
1199 1334
1199 1335
1199 1336
1199 1337
1199 1338
1199 1339
1199 1842
1199 1846
1199 2257
1199 2259
1199 2260
1199 2261
1199 2634
1199 2894
1199 2910
1199 2913
1199 2914
1199 2915
1199 2917
1199 2925
1199 2928
1199 2932
1199 2933
1199 2934
1199 2935
1199 2936
1199 2937
1199 2938
1199 2939
1199 2940
1199 2941
1199 2942
1199 2943
1199 2944
1199 2945
1199 2946
1199 2947
1199 2948
1199 2952
1199 2953
1199 2954
1199 2955
1199 2958
1199 2959
1199 2960
1199 2961
1199 2962
1199 2987
1199 2988
1199 2989
1199 2990
1199 2991
1199 2992
1199 2993
1199 2994
1199 2996
1199 2997
1199 2999
1199 3000
1199 3001
1199 3002
1199 3004
1199 3005
1199 3006
1200 1333
1200 1334
1200 1335
1200 1336
1200 1337
1200 1338
1200 1339
1200 1842
1200 1846
1200 2257
1200 2259
1200 2260
1200 2261
1200 2634
1200 2894
1200 2910
1200 2913
1200 2914
1200 2915
1200 2917
1200 2925
1200 2928
1200 2932
1200 2933
1200 2934
1200 2935
1200 2936
1200 2937
1200 2938
1200 2940
1200 2943
1200 2944
1200 2945
1200 2947
1200 2948
1200 2952
1200 2954
1200 2955
1200 2958
1200 2959
1200 2960
1200 2961
1200 2962
1200 2987
1200 2988
1200 2989
1200 2990
1200 2991
1200 2992
1200 2993
1200 2994
1200 2996
1200 2997
1200 2999
1200 3000
1200 3001
1200 3002
1200 3004
1200 3005
1200 3006
1201 1202
1201 1203
1201 1204
1201 1205
1202 1203
1202 1204
1203 1204
1203 1205
1207 1208
1207 1209
1207 1210
1207 1211
1207 1212
1207 1213
1207 1214
1207 1215
1208 1209
1208 1210
1208 1211
1208 1212
1208 1213
1208 1214
1208 1215
1208 1221
1209 1210
1209 1211
1209 1212
1209 1213
1209 1214
1209 1215
1209 1221
1210 1211
1210 1212
1210 1213
1210 1214
1210 1215
1210 1221
1211 1212
1211 1213
1211 1214
1211 1215
1211 1221
1212 1213
1212 1214
1212 1215
1212 1221
1213 1214
1213 1215
1213 1221
1214 1215
1214 1221
1215 1221
1216 1217
1216 1218
1216 1219
1216 1220
1217 1218
1217 1219
1217 1220
1217 1928
1217 1929
1217 1930
1217 1931
1217 1932
1217 1933
1217 1935
1217 1936
1217 1937
1217 1938
1217 1939
1217 1940
1217 1941
1218 1219
1218 1220
1218 1928
1218 1929
1218 1930
1218 1931
1218 1932
1218 1933
1218 1935
1218 1936
1218 1937
1218 1938
1218 1939
1218 1940
1218 1941
1219 1220
1219 1928
1219 1929
1219 1930
1219 1931
1219 1932
1219 1933
1219 1935
1219 1936
1219 1937
1219 1938
1219 1939
1219 1940
1219 1941
1220 1928
1220 1936
1220 1937
1220 1938
1220 1939
1220 1940
1220 1941
1222 1223
1223 1224
1223 3319
1226 1236
1227 1235
1236 1237
1238 1239
1238 1240
1238 1241
1238 1242
1243 1244
1243 1245
1243 1246
1243 1248
1244 1245
1244 1246
1244 1247
1244 1248
1245 1246
1245 1247
1245 1248
1246 1247
1246 1248
1249 1250
1249 1252
1250 1251
1250 1253
1250 1254
1250 1255
1251 1252
1251 1256
1252 1253
1252 1254
1252 1255
1253 1256
1254 1256
1255 1256
1257 1258
1257 1259
1260 1261
1260 1262
1260 1263
1260 1264
1260 2012
1260 2013
1261 1262
1261 1263
1261 1264
1262 1263
1263 1264
1263 2012
1263 2013
1263 2014
1263 2015
1265 1266
1265 1267
1265 1268
1265 1269
1265 1270
1265 1271
1265 1272
1265 1365
1266 1267
1266 1268
1266 1269
1266 1270
1266 1271
1266 1272
1266 1365
1267 1268
1267 1269
1267 1270
1267 1271
1267 1272
1268 1269
1268 1270
1268 1271
1268 1272
1268 1365
1269 1270
1269 1271
1269 1272
1269 1365
1270 1271
1270 1272
1270 1365
1271 1272
1271 1365
1272 1365
1273 1274
1273 1275
1273 1276
1273 1277
1273 1278
1273 1279
1273 1280
1273 1281
1273 1282
1273 1283
1273 1284
1273 1285
1273 1286
1273 1287
1273 1288
1273 1289
1273 1290
1273 1291
1273 1292
1273 1293
1273 1294
1273 1295
1273 1296
1273 1297
1273 1298
1273 1299
1273 1300
1273 1301
1273 1302
1273 1303
1273 1304
1273 1305
1273 2546
1273 2547
1273 2578
1274 1275
1274 1276
1274 1277
1274 1278
1274 1279
1274 1280
1274 1281
1274 1282
1274 1283
1274 1284
1274 1285
1274 1286
1274 1287
1274 1288
1274 1289
1274 1290
1274 1291
1274 1292
1274 1293
1274 1294
1274 1295
1274 1296
1274 1297
1274 1298
1274 1299
1274 1300
1274 1301
1274 1302
1274 1303
1274 1304
1274 1305
1274 2546
1274 2547
1274 2578
1275 1276
1275 1277
1275 1278
1275 1279
1275 1280
1275 1281
1275 1282
1275 1283
1275 1284
1275 1285
1275 1286
1275 1287
1275 1288
1275 1289
1275 1290
1275 1291
1275 1292
1275 1293
1275 1294
1275 1295
1275 1296
1275 1297
1275 1298
1275 1299
1275 1300
1275 1301
1275 1302
1275 1303
1275 1304
1275 1305
1275 2546
1275 2547
1275 2578
1276 1277
1276 1278
1276 1279
1276 1280
1276 1281
1276 1282
1276 1283
1276 1284
1276 1285
1276 1286
1276 1287
1276 1288
1276 1289
1276 1290
1276 1291
1276 1292
1276 1293
1276 1294
1276 1295
1276 1296
1276 1297
1276 1298
1276 1299
1276 1300
1276 1301
1276 1302
1276 1303
1276 1304
1276 1305
1276 2545
1276 2546
1276 2547
1276 2578
1276 2579
1276 2580
1276 2581
1276 2582
1277 1278
1277 1279
1277 1280
1277 1281
1277 1282
1277 1283
1277 1284
1277 1285
1277 1286
1277 1287
1277 1288
1277 1289
1277 1290
1277 1291
1277 1292
1277 1293
1277 1294
1277 1295
1277 1296
1277 1297
1277 1298
1277 1299
1277 1300
1277 1301
1277 1302
1277 1303
1277 1304
1277 1305
1277 2546
1277 2547
1277 2578
1278 1279
1278 1280
1278 1281
1278 1282
1278 1283
1278 1284
1278 1285
1278 1286
1278 1287
1278 1288
1278 1289
1278 1290
1278 1291
1278 1292
1278 1293
1278 1294
1278 1295
1278 1296
1278 1297
1278 1298
1278 1299
1278 1300
1278 1301
1278 1302
1278 1303
1278 1304
1278 1305
1278 2546
1278 2547
1278 2578
1279 1280
1279 1281
1279 1282
1279 1283
1279 1284
1279 1285
1279 1286
1279 1287
1279 1288
1279 1289
1279 1290
1279 1291
1279 1292
1279 1293
1279 1294
1279 1295
1279 1296
1279 1297
1279 1298
1279 1299
1279 1300
1279 1301
1279 1302
1279 1303
1279 1304
1279 1305
1279 2545
1279 2546
1279 2547
1279 2578
1279 2579
1279 2580
1279 2581
1279 2582
1279 2583
1280 1281
1280 1282
1280 1283
1280 1284
1280 1285
1280 1286
1280 1287
1280 1288
1280 1289
1280 1290
1280 1291
1280 1292
1280 1293
1280 1294
1280 1295
1280 1296
1280 1297
1280 1298
1280 1299
1280 1300
1280 1301
1280 1302
1280 1303
1280 1304
1280 1305
1280 2545
1280 2546
1280 2547
1280 2578
1280 2579
1280 2580
1280 2581
1280 2582
1280 2583
1281 1282
1281 1283
1281 1284
1281 1285
1281 1286
1281 1287
1281 1288
1281 1289
1281 1290
1281 1291
1281 1292
1281 1293
1281 1294
1281 1295
1281 1296
1281 1297
1281 1298
1281 1299
1281 1300
1281 1301
1281 1302
1281 1303
1281 1304
1281 1305
1281 2545
1281 2546
1281 2547
1281 2578
1281 2579
1281 2580
1281 2581
1281 2582
1281 2583
1282 1283
1282 1284
1282 1285
1282 1286
1282 1287
1282 1288
1282 1289
1282 1290
1282 1291
1282 1292
1282 1293
1282 1294
1282 1295
1282 1296
1282 1297
1282 1298
1282 1299
1282 1300
1282 1301
1282 1302
1282 1303
1282 1304
1282 1305
1282 2545
1282 2546
1282 2547
1282 2578
1282 2579
1282 2580
1282 2581
1282 2582
1282 2583
1283 1284
1283 1285
1283 1286
1283 1287
1283 1288
1283 1289
1283 1290
1283 1291
1283 1292
1283 1293
1283 1294
1283 1295
1283 1296
1283 1297
1283 1298
1283 1299
1283 1300
1283 1301
1283 1302
1283 1303
1283 1304
1283 1305
1283 2545
1283 2546
1283 2547
1283 2578
1283 2579
1283 2580
1283 2581
1283 2582
1283 2583
1284 1285
1284 1286
1284 1287
1284 1288
1284 1289
1284 1290
1284 1291
1284 1292
1284 1293
1284 1294
1284 1295
1284 1296
1284 1297
1284 1298
1284 1299
1284 1300
1284 1301
1284 1302
1284 1303
1284 1304
1284 1305
1284 2545
1284 2546
1284 2547
1284 2578
1284 2579
1284 2580
1284 2581
1284 2582
1284 2583
1285 1286
1285 1287
1285 1288
1285 1289
1285 1290
1285 1291
1285 1292
1285 1293
1285 1294
1285 1295
1285 1296
1285 1297
1285 1298
1285 1299
1285 1300
1285 1301
1285 1302
1285 1303
1285 1304
1285 1305
1285 2545
1285 2546
1285 2547
1285 2578
1285 2579
1285 2580
1285 2581
1285 2582
1285 2583
1286 1287
1286 1288
1286 1289
1286 1290
1286 1291
1286 1292
1286 1293
1286 1294
1286 1295
1286 1296
1286 1297
1286 1298
1286 1299
1286 1300
1286 1301
1286 1302
1286 1303
1286 1304
1286 1305
1286 2545
1286 2546
1286 2547
1286 2578
1286 2583
1287 1288
1287 1289
1287 1290
1287 1291
1287 1292
1287 1293
1287 1294
1287 1295
1287 1296
1287 1297
1287 1298
1287 1299
1287 1300
1287 1301
1287 1302
1287 1303
1287 1304
1287 1305
1287 2545
1287 2546
1287 2547
1287 2578
1287 2583
1288 1289
1288 1290
1288 1291
1288 1292
1288 1293
1288 1294
1288 1295
1288 1296
1288 1297
1288 1298
1288 1299
1288 1300
1288 1301
1288 1302
1288 1303
1288 1304
1288 1305
1288 2546
1288 2547
1288 2578
1289 1290
1289 1291
1289 1292
1289 1293
1289 1294
1289 1295
1289 1296
1289 1297
1289 1298
1289 1299
1289 1300
1289 1301
1289 1302
1289 1303
1289 1304
1289 1305
1289 2546
1289 2547
1289 2578
1290 1291
1290 1292
1290 1293
1290 1294
1290 1295
1290 1296
1290 1297
1290 1298
1290 1299
1290 1300
1290 1301
1290 1302
1290 1303
1290 1304
1290 1305
1290 2546
1290 2547
1290 2578
1291 1292
1291 1293
1291 1294
1291 1295
1291 1296
1291 1297
1291 1298
1291 1299
1291 1300
1291 1301
1291 1302
1291 1303
1291 1304
1291 1305
1291 2545
1291 2546
1291 2547
1291 2578
1291 2579
1291 2580
1291 2581
1291 2582
1291 2583
1292 1293
1292 1294
1292 1295
1292 1296
1292 1297
1292 1298
1292 1299
1292 1300
1292 1301
1292 1302
1292 1303
1292 1304
1292 1305
1292 2545
1292 2546
1292 2547
1292 2578
1292 2579
1292 2580
1292 2581
1292 2582
1292 2583
1293 1294
1293 1295
1293 1296
1293 1297
1293 1298
1293 1299
1293 1300
1293 1301
1293 1302
1293 1303
1293 1304
1293 1305
1293 2546
1293 2547
1293 2578
1294 1295
1294 1296
1294 1297
1294 1298
1294 1299
1294 1300
1294 1301
1294 1302
1294 1303
1294 1304
1294 1305
1294 2546
1294 2547
1294 2578
1295 1296
1295 1297
1295 1298
1295 1299
1295 1300
1295 1301
1295 1302
1295 1303
1295 1304
1295 1305
1295 1999
1295 2000
1295 2001
1295 2546
1295 2547
1295 2578
1295 3298
1296 1297
1296 1298
1296 1299
1296 1300
1296 1301
1296 1302
1296 1303
1296 1304
1296 1305
1296 2545
1296 2546
1296 2547
1296 2578
1296 2579
1296 2580
1296 2581
1296 2582
1296 2583
1297 1298
1297 1299
1297 1300
1297 1301
1297 1302
1297 1303
1297 1304
1297 1305
1297 2546
1297 2547
1297 2578
1298 1299
1298 1300
1298 1301
1298 1302
1298 1303
1298 1304
1298 1305
1298 2546
1298 2547
1298 2578
1299 1300
1299 1301
1299 1302
1299 1303
1299 1304
1299 1305
1299 2546
1299 2547
1299 2578
1300 1301
1300 1302
1300 1303
1300 1304
1300 1305
1300 2546
1300 2547
1300 2578
1301 1302
1301 1303
1301 1304
1301 1305
1301 2546
1301 2547
1301 2578
1302 1303
1302 1304
1302 1305
1302 2546
1302 2547
1302 2578
1303 1304
1303 1305
1303 2545
1303 2546
1303 2547
1303 2578
1303 2583
1304 1305
1304 2546
1304 2547
1304 2578
1305 2546
1305 2547
1305 2578
1306 1307
1306 1308
1306 1356
1306 1357
1307 1308
1307 1360
1309 1310
1309 1311
1309 1550
1309 1551
1310 1311
1312 1313
1312 1314
1312 1353
1313 1314
1313 3061
1314 1354
1314 1355
1314 1368
1314 1369
1316 1317
1316 1318
1316 1319
1316 1320
1316 1321
1316 1322
1316 1323
1317 1318
1317 1319
1317 1320
1317 1321
1317 1322
1317 1323
1318 1319
1318 1320
1318 1321
1318 1322
1318 1323
1319 1320
1319 1321
1319 1322
1319 1323
1320 1321
1320 1322
1320 1323
1321 1322
1321 1323
1322 1323
1324 1325
1324 1326
1324 1327
1324 1328
1324 1329
1324 1330
1324 1331
1324 1332
1325 1326
1325 1327
1325 1328
1325 1329
1325 1330
1325 1331
1325 1332
1326 1327
1326 1328
1326 1329
1326 1330
1326 1331
1326 1332
1327 1328
1327 1329
1327 1330
1327 1331
1327 1332
1328 1329
1328 1330
1328 1331
1328 1332
1329 1330
1329 1331
1329 1332
1330 1331
1330 1332
1331 1332
1333 1334
1333 1335
1333 1336
1333 1337
1333 1338
1333 1339
1333 1842
1333 1846
1333 2257
1333 2259
1333 2260
1333 2261
1333 2634
1333 2857
1333 2886
1333 2887
1333 2888
1333 2890
1333 2891
1333 2892
1333 2893
1333 2894
1333 2904
1333 2905
1333 2906
1333 2909
1333 2910
1333 2911
1333 2912
1333 2913
1333 2914
1333 2915
1333 2916
1333 2917
1333 2919
1333 2920
1333 2921
1333 2922
1333 2923
1333 2924
1333 2925
1333 2926
1333 2927
1333 2928
1333 2929
1333 2930
1333 2931
1333 2932
1333 2933
1333 2934
1333 2935
1333 2936
1333 2937
1333 2938
1333 2939
1333 2940
1333 2941
1333 2942
1333 2943
1333 2944
1333 2945
1333 2946
1333 2947
1333 2948
1333 2952
1333 2953
1333 2954
1333 2955
1333 2958
1333 2959
1333 2960
1333 2961
1333 2962
1333 2987
1333 2988
1333 2989
1333 2990
1333 2991
1333 2992
1333 2993
1333 2994
1333 2996
1333 2997
1333 2999
1333 3000
1333 3001
1333 3002
1333 3004
1333 3005
1333 3006
1333 3381
1333 3382
1333 3472
1333 3473
1333 3474
1334 1335
1334 1336
1334 1337
1334 1338
1334 1339
1334 1842
1334 1846
1334 2257
1334 2259
1334 2260
1334 2261
1334 2634
1334 2857
1334 2886
1334 2887
1334 2888
1334 2890
1334 2891
1334 2892
1334 2893
1334 2894
1334 2904
1334 2905
1334 2906
1334 2909
1334 2910
1334 2911
1334 2912
1334 2913
1334 2914
1334 2915
1334 2916
1334 2917
1334 2919
1334 2920
1334 2921
1334 2922
1334 2923
1334 2924
1334 2925
1334 2926
1334 2927
1334 2928
1334 2929
1334 2930
1334 2931
1334 2932
1334 2933
1334 2934
1334 2935
1334 2936
1334 2937
1334 2938
1334 2939
1334 2940
1334 2941
1334 2942
1334 2943
1334 2944
1334 2945
1334 2946
1334 2947
1334 2948
1334 2952
1334 2953
1334 2954
1334 2955
1334 2958
1334 2959
1334 2960
1334 2961
1334 2962
1334 2987
1334 2988
1334 2989
1334 2990
1334 2991
1334 2992
1334 2993
1334 2994
1334 2996
1334 2997
1334 2999
1334 3000
1334 3001
1334 3002
1334 3004
1334 3005
1334 3006
1334 3381
1334 3382
1334 3472
1334 3473
1334 3474
1335 1336
1335 1337
1335 1338
1335 1339
1335 1842
1335 1846
1335 2257
1335 2259
1335 2260
1335 2261
1335 2634
1335 2857
1335 2886
1335 2887
1335 2888
1335 2890
1335 2891
1335 2892
1335 2893
1335 2894
1335 2904
1335 2905
1335 2906
1335 2909
1335 2910
1335 2911
1335 2912
1335 2913
1335 2914
1335 2915
1335 2916
1335 2917
1335 2919
1335 2920
1335 2921
1335 2922
1335 2923
1335 2924
1335 2925
1335 2926
1335 2927
1335 2928
1335 2929
1335 2930
1335 2931
1335 2932
1335 2933
1335 2934
1335 2935
1335 2936
1335 2937
1335 2938
1335 2939
1335 2940
1335 2941
1335 2942
1335 2943
1335 2944
1335 2945
1335 2946
1335 2947
1335 2948
1335 2952
1335 2953
1335 2954
1335 2955
1335 2958
1335 2959
1335 2960
1335 2961
1335 2962
1335 2987
1335 2988
1335 2989
1335 2990
1335 2991
1335 2992
1335 2993
1335 2994
1335 2996
1335 2997
1335 2999
1335 3000
1335 3001
1335 3002
1335 3004
1335 3005
1335 3006
1335 3381
1335 3382
1335 3472
1335 3473
1335 3474
1336 1337
1336 1338
1336 1339
1336 1842
1336 1846
1336 2257
1336 2259
1336 2260
1336 2261
1336 2634
1336 2857
1336 2886
1336 2887
1336 2888
1336 2890
1336 2891
1336 2892
1336 2893
1336 2894
1336 2904
1336 2905
1336 2906
1336 2909
1336 2910
1336 2911
1336 2912
1336 2913
1336 2914
1336 2915
1336 2916
1336 2917
1336 2919
1336 2920
1336 2921
1336 2922
1336 2923
1336 2924
1336 2925
1336 2926
1336 2927
1336 2928
1336 2929
1336 2930
1336 2931
1336 2932
1336 2933
1336 2934
1336 2935
1336 2936
1336 2937
1336 2938
1336 2939
1336 2940
1336 2941
1336 2942
1336 2943
1336 2944
1336 2945
1336 2946
1336 2947
1336 2948
1336 2952
1336 2953
1336 2954
1336 2955
1336 2958
1336 2959
1336 2960
1336 2961
1336 2962
1336 2987
1336 2988
1336 2989
1336 2990
1336 2991
1336 2992
1336 2993
1336 2994
1336 2996
1336 2997
1336 2999
1336 3000
1336 3001
1336 3002
1336 3004
1336 3005
1336 3006
1336 3381
1336 3382
1336 3472
1336 3473
1336 3474
1337 1338
1337 1339
1337 1842
1337 1846
1337 2257
1337 2259
1337 2260
1337 2261
1337 2634
1337 2857
1337 2886
1337 2887
1337 2888
1337 2890
1337 2891
1337 2892
1337 2893
1337 2894
1337 2904
1337 2905
1337 2906
1337 2909
1337 2910
1337 2911
1337 2912
1337 2913
1337 2914
1337 2915
1337 2916
1337 2917
1337 2919
1337 2920
1337 2921
1337 2922
1337 2923
1337 2924
1337 2925
1337 2926
1337 2927
1337 2928
1337 2929
1337 2930
1337 2931
1337 2932
1337 2933
1337 2934
1337 2935
1337 2936
1337 2937
1337 2938
1337 2939
1337 2940
1337 2941
1337 2942
1337 2943
1337 2944
1337 2945
1337 2946
1337 2947
1337 2948
1337 2952
1337 2953
1337 2954
1337 2955
1337 2958
1337 2959
1337 2960
1337 2961
1337 2962
1337 2987
1337 2988
1337 2989
1337 2990
1337 2991
1337 2992
1337 2993
1337 2994
1337 2996
1337 2997
1337 2999
1337 3000
1337 3001
1337 3002
1337 3004
1337 3005
1337 3006
1337 3381
1337 3382
1338 1339
1338 1842
1338 1846
1338 2257
1338 2259
1338 2260
1338 2261
1338 2634
1338 2857
1338 2886
1338 2887
1338 2888
1338 2890
1338 2891
1338 2892
1338 2893
1338 2894
1338 2904
1338 2905
1338 2906
1338 2909
1338 2910
1338 2911
1338 2912
1338 2913
1338 2914
1338 2915
1338 2916
1338 2917
1338 2919
1338 2920
1338 2921
1338 2922
1338 2923
1338 2924
1338 2925
1338 2926
1338 2927
1338 2928
1338 2929
1338 2930
1338 2931
1338 2932
1338 2933
1338 2934
1338 2935
1338 2936
1338 2937
1338 2938
1338 2939
1338 2940
1338 2941
1338 2942
1338 2943
1338 2944
1338 2945
1338 2946
1338 2947
1338 2948
1338 2952
1338 2953
1338 2954
1338 2955
1338 2958
1338 2959
1338 2960
1338 2961
1338 2962
1338 2987
1338 2988
1338 2989
1338 2990
1338 2991
1338 2992
1338 2993
1338 2994
1338 2996
1338 2997
1338 2999
1338 3000
1338 3001
1338 3002
1338 3004
1338 3005
1338 3006
1338 3381
1338 3382
1339 1842
1339 1846
1339 2257
1339 2259
1339 2260
1339 2261
1339 2634
1339 2857
1339 2886
1339 2887
1339 2888
1339 2890
1339 2891
1339 2892
1339 2893
1339 2894
1339 2904
1339 2905
1339 2906
1339 2909
1339 2910
1339 2911
1339 2912
1339 2913
1339 2914
1339 2915
1339 2916
1339 2917
1339 2919
1339 2920
1339 2921
1339 2922
1339 2923
1339 2924
1339 2925
1339 2926
1339 2927
1339 2928
1339 2929
1339 2930
1339 2931
1339 2932
1339 2933
1339 2934
1339 2935
1339 2936
1339 2937
1339 2938
1339 2939
1339 2940
1339 2941
1339 2942
1339 2943
1339 2944
1339 2945
1339 2946
1339 2947
1339 2948
1339 2952
1339 2953
1339 2954
1339 2955
1339 2958
1339 2959
1339 2960
1339 2961
1339 2962
1339 2987
1339 2988
1339 2989
1339 2990
1339 2991
1339 2992
1339 2993
1339 2994
1339 2996
1339 2997
1339 2999
1339 3000
1339 3001
1339 3002
1339 3004
1339 3005
1339 3006
1339 3381
1339 3382
1339 3472
1339 3473
1339 3474
1340 1341
1340 1342
1340 1343
1340 1344
1340 1345
1340 1346
1340 1347
1340 1348
1340 1349
1340 1350
1340 1351
1340 1352
1341 1342
1341 1343
1341 1344
1341 1345
1341 1346
1341 1347
1341 1348
1341 1349
1341 1350
1341 1351
1341 1352
1342 1343
1342 1344
1342 1345
1342 1346
1342 1347
1342 1348
1342 1349
1342 1350
1342 1351
1342 1352
1343 1344
1343 1345
1343 1346
1343 1347
1343 1348
1343 1349
1343 1350
1343 1351
1343 1352
1344 1345
1344 1346
1344 1347
1344 1348
1344 1349
1344 1350
1344 1351
1344 1352
1345 1346
1345 1347
1345 1348
1345 1349
1345 1350
1345 1351
1345 1352
1346 1347
1346 1348
1346 1349
1346 1350
1346 1351
1346 1352
1347 1348
1347 1349
1347 1350
1347 1351
1347 1352
1348 1349
1348 1350
1348 1351
1348 1352
1349 1350
1349 1351
1349 1352
1350 1351
1350 1352
1351 1352
1354 1355
1354 1368
1354 1369
1356 1357
1356 1358
1356 1359
1358 1359
1362 1363
1366 1367
1370 1371
1372 1373
1377 1378
1377 1379
1377 1380
1377 1381
1377 1382
1377 1383
1378 1379
1378 1380
1378 1381
1378 1382
1378 1383
1379 1380
1379 1381
1379 1382
1379 1383
1380 1381
1380 1382
1380 1383
1381 1382
1381 1383
1382 1383
1384 1385
1384 1386
1384 1387
1384 1388
1384 1389
1384 1390
1384 1391
1384 1392
1384 1393
1384 1394
1384 1395
1384 1396
1384 1397
1384 1398
1385 1386
1385 1387
1385 1388
1385 1389
1385 1390
1385 1391
1385 1392
1385 1393
1385 1394
1385 1395
1385 1396
1385 1397
1385 1398
1386 1387
1386 1388
1386 1389
1386 1390
1386 1391
1386 1392
1386 1393
1386 1394
1386 1395
1386 1396
1386 1397
1386 1398
1387 1388
1387 1389
1387 1390
1387 1391
1387 1392
1387 1393
1387 1394
1387 1395
1387 1396
1387 1397
1387 1398
1388 1389
1388 1390
1388 1391
1388 1392
1388 1393
1388 1394
1388 1395
1388 1396
1388 1397
1388 1398
1389 1390
1389 1391
1389 1392
1389 1393
1389 1394
1389 1395
1389 1396
1389 1397
1389 1398
1390 1391
1390 1392
1390 1393
1390 1394
1390 1395
1390 1396
1390 1397
1390 1398
1391 1392
1391 1393
1391 1394
1391 1395
1391 1396
1391 1397
1391 1398
1392 1393
1392 1394
1392 1395
1392 1396
1392 1397
1392 1398
1393 1394
1393 1395
1393 1396
1393 1397
1393 1398
1394 1395
1394 1396
1394 1397
1394 1398
1395 1396
1395 1397
1395 1398
1396 1397
1396 1398
1397 1398
1399 1400
1399 1401
1399 1402
1399 1403
1399 1404
1399 1405
1400 1401
1400 1402
1400 1403
1400 1404
1401 1402
1401 1403
1401 1404
1402 1403
1402 1404
1403 1404
1404 1405
1406 1407
1406 1408
1406 1409
1406 1410
1406 1411
1406 1412
1406 1413
1406 1414
1406 1415
1406 1416
1406 1417
1406 1418
1407 1408
1407 1409
1407 1410
1407 1411
1407 1412
1407 1413
1407 1414
1407 1415
1407 1416
1407 1417
1407 1418
1408 1409
1408 1410
1408 1411
1408 1412
1408 1413
1408 1414
1408 1415
1408 1416
1408 1417
1408 1418
1409 1410
1409 1411
1409 1412
1409 1413
1409 1414
1409 1415
1409 1416
1409 1417
1409 1418
1410 1411
1410 1412
1410 1413
1410 1414
1410 1415
1410 1416
1410 1417
1410 1418
1411 1412
1411 1413
1411 1414
1411 1415
1411 1416
1411 1417
1411 1418
1412 1413
1412 1414
1412 1415
1412 1416
1412 1417
1412 1418
1413 1414
1413 1415
1413 1416
1413 1417
1414 1415
1414 1416
1414 1417
1414 1418
1415 1416
1415 1417
1415 1418
1416 1417
1416 1418
1417 1418
1419 1420
1420 1421
1422 1423
1422 1424
1423 1424
1427 1428
1427 1429
1427 1430
1427 1431
1427 1432
1427 1433
1428 1429
1428 1430
1428 1431
1428 1432
1428 1433
1429 1430
1429 1431
1429 1432
1429 1433
1430 1431
1430 1432
1430 1433
1431 1432
1431 1433
1432 1433
1434 1435
1434 1436
1435 1436
1437 1438
1439 1440
1439 1441
1439 1442
1439 1443
1439 1452
1439 1453
1439 1454
1439 1455
1440 1441
1440 1442
1440 1443
1441 1442
1441 1443
1441 1452
1441 1453
1441 1454
1442 1443
1443 1452
1443 1453
1443 1454
1443 1455
1444 1445
1444 1446
1444 1447
1444 1448
1445 1446
1445 1447
1445 1448
1446 1447
1446 1448
1447 1448
1447 2026
1447 2027
1447 2028
1447 2029
1447 2030
1447 2031
1447 2032
1447 2033
1447 2034
1447 2035
1447 2036
1447 2037
1447 2038
1447 2039
1447 2040
1447 2041
1447 2042
1447 2043
1447 2044
1447 2045
1447 2046
1447 2047
1447 2048
1447 3214
1447 3215
1447 3216
1447 3217
1447 3218
1447 3219
1447 3220
1447 3221
1449 1450
1449 1451
1450 1451
1452 1453
1452 1454
1452 1455
1453 1454
1453 1455
1454 1455
1456 1457
1456 1479
1458 1459
1458 1460
1458 1461
1458 1462
1458 1463
1458 1464
1458 1465
1458 1466
1458 1467
1458 1468
1458 1469
1458 1470
1458 1471
1458 1472
1458 1473
1458 1474
1458 1475
1458 1476
1458 1477
1458 1478
1459 1460
1459 1461
1459 1462
1459 1463
1459 1464
1459 1465
1459 1466
1459 1467
1459 1468
1459 1469
1459 1470
1459 1471
1459 1472
1459 1473
1459 1474
1459 1475
1459 1476
1459 1477
1459 1478
1460 1461
1460 1462
1460 1463
1460 1464
1460 1465
1460 1466
1460 1467
1460 1468
1460 1469
1460 1470
1460 1471
1460 1472
1460 1473
1460 1474
1460 1475
1460 1476
1460 1477
1460 1478
1461 1462
1461 1463
1461 1464
1461 1465
1461 1466
1461 1467
1461 1468
1461 1469
1461 1470
1461 1471
1461 1472
1461 1473
1461 1474
1461 1475
1461 1476
1461 1477
1461 1478
1462 1463
1462 1464
1462 1465
1462 1466
1462 1467
1462 1468
1462 1469
1462 1470
1462 1471
1462 1472
1462 1473
1462 1474
1462 1475
1462 1476
1462 1477
1462 1478
1463 1464
1463 1465
1463 1466
1463 1467
1463 1468
1463 1469
1463 1470
1463 1471
1463 1472
1463 1473
1463 1474
1463 1475
1463 1476
1463 1477
1463 1478
1464 1465
1464 1466
1464 1467
1464 1468
1464 1469
1464 1470
1464 1471
1464 1472
1464 1473
1464 1474
1464 1475
1464 1476
1464 1477
1464 1478
1465 1466
1465 1467
1465 1468
1465 1469
1465 1470
1465 1471
1465 1472
1465 1473
1465 1474
1465 1475
1465 1476
1465 1477
1465 1478
1466 1467
1466 1468
1466 1469
1466 1470
1466 1471
1466 1472
1466 1473
1466 1474
1466 1475
1466 1476
1466 1477
1466 1478
1467 1468
1467 1469
1467 1470
1467 1471
1467 1472
1467 1473
1467 1474
1467 1475
1467 1476
1467 1477
1467 1478
1468 1469
1468 1470
1468 1471
1468 1472
1468 1473
1468 1474
1468 1475
1468 1476
1468 1477
1468 1478
1469 1470
1469 1471
1469 1472
1469 1473
1469 1474
1469 1475
1469 1476
1469 1477
1469 1478
1470 1471
1470 1472
1470 1473
1470 1474
1470 1475
1470 1476
1470 1477
1470 1478
1471 1472
1471 1473
1471 1474
1471 1475
1471 1476
1471 1477
1471 1478
1472 1473
1472 1474
1472 1475
1472 1476
1472 1477
1472 1478
1473 1474
1473 1475
1473 1476
1473 1477
1473 1478
1474 1475
1474 1476
1474 1477
1474 1478
1475 1476
1475 1477
1475 1478
1476 1477
1476 1478
1477 1478
1481 1482
1481 2254
1483 1484
1483 1485
1483 1486
1483 2829
1483 3143
1484 1485
1484 1486
1485 1486
1485 2829
1485 3143
1486 2829
1486 3143
1487 1488
1487 1489
1488 1489
1492 1493
1492 1494
1492 1495
1492 1496
1493 1494
1493 1495
1493 1496
1494 1495
1494 1496
1495 1496
1497 1498
1499 1500
1501 1502
1501 1503
1501 1504
1501 1528
1502 1503
1502 1504
1502 1528
1505 1506
1505 1507
1505 1538
1506 1507
1506 1534
1506 1535
1506 1536
1506 1537
1506 1538
1507 1534
1507 1535
1507 1536
1507 1537
1508 1509
1508 1510
1508 1611
1508 1612
1509 1510
1511 1512
1511 1513
1511 1552
1511 1553
1512 1513
1512 1514
1512 1526
1512 1527
1512 1529
1512 1530
1513 1514
1513 1526
1513 1527
1513 1529
1513 1530
1514 1552
1514 1553
1515 1516
1515 1517
1516 1517
1518 1519
1518 1520
1519 1520
1521 1522
1521 1523
1524 1525
1526 1552
1526 1553
1527 1552
1527 1553
1529 1530
1529 1552
1529 1553
1530 1552
1530 1553
1531 1532
1531 1533
1531 1539
1531 1540
1532 1533
1532 1539
1532 1540
1532 1541
1533 1541
1534 1538
1535 1538
1536 1538
1537 1538
1539 1541
1540 1541
1542 1543
1542 1544
1542 1545
1542 1546
1542 1547
1542 1548
1542 1549
1543 1544
1543 1545
1543 1546
1543 1547
1543 1548
1543 1549
1544 1545
1544 1546
1544 1547
1544 1548
1544 1549
1545 1546
1545 1547
1545 1548
1545 1549
1546 1547
1546 1548
1546 1549
1547 1548
1547 1549
1548 1549
1550 1551
1552 1553
1554 1555
1556 1557
1558 1559
1558 1560
1558 1561
1558 1562
1559 1560
1559 1561
1559 1562
1560 1561
1561 1562
1563 1564
1565 1566
1565 3522
1566 3522
1567 1568
1567 1569
1567 1570
1567 1571
1567 1572
1568 1569
1568 1570
1568 1571
1568 1572
1568 1573
1568 1574
1569 1570
1569 1571
1569 1572
1570 1571
1570 1572
1570 1573
1570 1574
1571 1572
1571 1573
1571 1574
1572 1573
1572 1574
1573 1574
1575 1576
1577 1578
1579 1580
1581 1582
1583 1584
1585 1586
1587 1588
1587 1589
1588 1589
1589 3008
1589 3009
1590 1591
1590 1592
1591 1592
1593 1594
1593 1595
1594 1595
1596 1597
1596 1598
1596 1599
1597 1598
1597 1599
1598 1599
1601 1602
1604 1605
1604 1606
1604 1607
1604 1615
1604 3126
1604 3127
1604 3128
1605 1606
1605 1607
1605 1615
1606 1607
1606 1615
1606 2584
1606 2585
1606 2586
1606 3126
1606 3127
1606 3128
1607 1615
1608 1609
1611 1612
1613 1614
1616 1617
1618 1619
1620 1621
1622 1623
1624 1625
1624 1626
1624 1627
1624 1628
1624 1629
1624 1630
1624 1631
1624 1632
1625 1626
1625 1627
1625 1628
1625 1629
1625 1630
1625 1631
1625 1632
1626 1627
1626 1628
1626 1629
1626 1630
1626 1631
1626 1632
1627 1628
1627 1629
1627 1630
1627 1631
1627 1632
1628 1629
1628 1630
1628 1631
1628 1632
1629 1630
1629 1631
1629 1632
1630 1631
1630 1632
1631 1632
1633 1634
1635 1636
1637 1638
1637 1639
1637 1640
1638 1639
1638 1640
1639 1640
1641 1642
1641 1643
1642 1643
1642 1787
1642 1788
1642 1789
1642 1790
1642 1791
1642 1792
1644 1645
1646 1647
1648 1649
1648 1650
1649 1651
1650 1651
1652 1653
1652 1654
1653 1654
1659 1660
1659 1661
1659 1662
1659 1663
1659 1664
1659 1665
1659 1666
1660 1661
1660 1662
1660 1663
1660 1664
1660 1665
1660 1666
1661 1662
1661 1663
1661 1664
1661 1665
1661 1666
1662 1663
1662 1664
1662 1665
1662 1666
1663 1664
1663 1665
1663 1666
1664 1665
1664 1666
1665 1666
1668 1669
1668 1670
1669 1671
1669 1672
1669 1673
1669 1674
1669 1675
1669 1676
1669 1677
1669 1678
1669 1679
1669 1680
1669 1681
1670 1671
1670 1673
1670 1675
1682 1683
1684 1685
1684 1686
1684 1687
1684 1688
1684 1689
1684 1690
1684 1691
1684 1692
1684 1693
1684 1694
1684 1695
1684 1696
1684 1697
1684 1698
1684 1699
1684 1700
1684 1701
1684 1702
1684 1703
1684 1704
1684 1705
1684 1706
1684 1707
1684 1708
1684 1709
1684 1710
1684 1711
1684 1712
1684 1713
1684 1714
1684 1715
1684 1716
1684 1717
1685 1686
1685 1687
1685 1688
1685 1689
1685 1690
1685 1691
1685 1692
1685 1693
1685 1694
1685 1695
1685 1696
1685 1697
1685 1698
1685 1699
1685 1700
1685 1701
1685 1702
1685 1703
1685 1704
1685 1705
1685 1706
1685 1707
1685 1708
1685 1709
1685 1710
1685 1711
1685 1712
1685 1713
1685 1714
1685 1715
1685 1716
1685 1717
1686 1687
1686 1688
1686 1689
1686 1690
1686 1691
1686 1692
1686 1693
1686 1694
1686 1695
1686 1696
1686 1697
1686 1698
1686 1699
1686 1700
1686 1701
1686 1702
1686 1703
1686 1704
1686 1705
1686 1706
1686 1707
1686 1708
1686 1709
1686 1710
1686 1711
1686 1712
1686 1713
1686 1714
1686 1715
1686 1716
1686 1717
1687 1688
1687 1689
1687 1690
1687 1691
1687 1692
1687 1693
1687 1694
1687 1695
1687 1696
1687 1697
1687 1698
1687 1699
1687 1700
1687 1701
1687 1702
1687 1703
1687 1704
1687 1705
1687 1706
1687 1707
1687 1708
1687 1709
1687 1710
1687 1711
1687 1712
1687 1713
1687 1714
1687 1715
1687 1716
1687 1717
1688 1689
1688 1690
1688 1691
1688 1692
1688 1693
1688 1694
1688 1695
1688 1696
1688 1697
1688 1698
1688 1699
1688 1700
1688 1701
1688 1702
1688 1703
1688 1704
1688 1705
1688 1706
1688 1707
1688 1708
1688 1709
1688 1710
1688 1711
1688 1712
1688 1713
1688 1714
1688 1715
1688 1716
1688 1717
1689 1690
1689 1691
1689 1692
1689 1693
1689 1694
1689 1695
1689 1696
1689 1697
1689 1698
1689 1699
1689 1700
1689 1701
1689 1702
1689 1703
1689 1704
1689 1705
1689 1706
1689 1707
1689 1708
1689 1709
1689 1710
1689 1711
1689 1712
1689 1713
1689 1714
1689 1715
1689 1716
1689 1717
1690 1691
1690 1692
1690 1693
1690 1694
1690 1695
1690 1696
1690 1697
1690 1698
1690 1699
1690 1700
1690 1701
1690 1702
1690 1703
1690 1704
1690 1705
1690 1706
1690 1707
1690 1708
1690 1709
1690 1710
1690 1711
1690 1712
1690 1713
1690 1714
1690 1715
1690 1716
1690 1717
1691 1692
1691 1693
1691 1694
1691 1695
1691 1696
1691 1697
1691 1698
1691 1699
1691 1700
1691 1701
1691 1702
1691 1703
1691 1704
1691 1705
1691 1706
1691 1707
1691 1708
1691 1709
1691 1710
1691 1711
1691 1712
1691 1713
1691 1714
1691 1715
1691 1716
1691 1717
1692 1693
1692 1694
1692 1695
1692 1696
1692 1697
1692 1698
1692 1699
1692 1700
1692 1701
1692 1702
1692 1703
1692 1704
1692 1705
1692 1706
1692 1707
1692 1708
1692 1709
1692 1710
1692 1711
1692 1712
1692 1713
1692 1714
1692 1715
1692 1716
1692 1717
1693 1694
1693 1695
1693 1696
1693 1697
1693 1698
1693 1699
1693 1700
1693 1701
1693 1702
1693 1703
1693 1704
1693 1705
1693 1706
1693 1707
1693 1708
1693 1709
1693 1710
1693 1711
1693 1712
1693 1713
1693 1714
1693 1715
1693 1716
1693 1717
1694 1695
1694 1696
1694 1697
1694 1698
1694 1699
1694 1700
1694 1701
1694 1702
1694 1703
1694 1704
1694 1705
1694 1706
1694 1707
1694 1708
1694 1709
1694 1710
1694 1711
1694 1712
1694 1713
1694 1714
1694 1715
1694 1716
1694 1717
1695 1696
1695 1697
1695 1698
1695 1699
1695 1700
1695 1701
1695 1702
1695 1703
1695 1704
1695 1705
1695 1706
1695 1707
1695 1708
1695 1709
1695 1710
1695 1711
1695 1712
1695 1713
1695 1714
1695 1715
1695 1716
1695 1717
1696 1697
1696 1698
1696 1699
1696 1700
1696 1701
1696 1702
1696 1703
1696 1704
1696 1705
1696 1706
1696 1707
1696 1708
1696 1709
1696 1710
1696 1711
1696 1712
1696 1713
1696 1714
1696 1715
1696 1716
1696 1717
1697 1698
1697 1699
1697 1700
1697 1701
1697 1702
1697 1703
1697 1704
1697 1705
1697 1706
1697 1707
1697 1708
1697 1709
1697 1710
1697 1711
1697 1712
1697 1713
1697 1714
1697 1715
1697 1716
1697 1717
1698 1699
1698 1700
1698 1701
1698 1702
1698 1703
1698 1704
1698 1705
1698 1706
1698 1707
1698 1708
1698 1709
1698 1710
1698 1711
1698 1712
1698 1713
1698 1714
1698 1715
1698 1716
1698 1717
1699 1700
1699 1701
1699 1702
1699 1703
1699 1704
1699 1705
1699 1706
1699 1707
1699 1708
1699 1709
1699 1710
1699 1711
1699 1712
1699 1713
1699 1714
1699 1715
1699 1716
1699 1717
1700 1701
1700 1702
1700 1703
1700 1704
1700 1705
1700 1706
1700 1707
1700 1708
1700 1709
1700 1710
1700 1711
1700 1712
1700 1713
1700 1714
1700 1715
1700 1716
1700 1717
1701 1702
1701 1703
1701 1704
1701 1705
1701 1706
1701 1707
1701 1708
1701 1709
1701 1710
1701 1711
1701 1712
1701 1713
1701 1714
1701 1715
1701 1716
1701 1717
1702 1703
1702 1704
1702 1705
1702 1706
1702 1707
1702 1708
1702 1709
1702 1710
1702 1711
1702 1712
1702 1713
1702 1714
1702 1715
1702 1716
1702 1717
1703 1704
1703 1705
1703 1706
1703 1707
1703 1708
1703 1709
1703 1710
1703 1711
1703 1712
1703 1713
1703 1714
1703 1715
1703 1716
1703 1717
1704 1705
1704 1706
1704 1707
1704 1708
1704 1709
1704 1710
1704 1711
1704 1712
1704 1713
1704 1714
1704 1715
1704 1716
1704 1717
1705 1706
1705 1707
1705 1708
1705 1709
1705 1710
1705 1711
1705 1712
1705 1713
1705 1714
1705 1715
1705 1716
1705 1717
1706 1707
1706 1708
1706 1709
1706 1710
1706 1711
1706 1712
1706 1713
1706 1714
1706 1715
1706 1716
1706 1717
1707 1708
1707 1709
1707 1710
1707 1711
1707 1712
1707 1713
1707 1714
1707 1715
1707 1716
1707 1717
1708 1709
1708 1710
1708 1711
1708 1712
1708 1713
1708 1714
1708 1715
1708 1716
1708 1717
1709 1710
1709 1711
1709 1712
1709 1713
1709 1714
1709 1715
1709 1716
1709 1717
1710 1711
1710 1712
1710 1713
1710 1714
1710 1715
1710 1716
1710 1717
1711 1712
1711 1713
1711 1714
1711 1715
1711 1716
1711 1717
1712 1713
1712 1714
1712 1715
1712 1716
1712 1717
1713 1714
1713 1715
1713 1716
1713 1717
1714 1715
1714 1716
1714 1717
1715 1716
1715 1717
1716 1717
1718 1719
1718 1720
1718 1721
1718 1722
1718 1723
1719 1720
1719 1721
1719 1722
1719 1723
1720 1721
1720 1722
1720 1723
1721 1722
1721 1723
1722 1723
1724 1725
1724 1726
1724 1727
1724 1728
1724 1729
1724 1730
1724 1731
1724 1732
1724 1733
1724 1734
1724 1735
1724 1736
1724 1737
1725 1726
1725 1727
1725 1728
1725 1729
1725 1730
1725 1731
1725 1732
1725 1733
1725 1734
1725 1735
1725 1736
1725 1737
1726 1727
1726 1728
1726 1729
1726 1730
1726 1731
1726 1732
1726 1733
1726 1734
1726 1735
1726 1736
1726 1737
1727 1728
1727 1729
1727 1730
1727 1731
1727 1732
1727 1733
1727 1734
1727 1735
1727 1736
1727 1737
1728 1729
1728 1730
1728 1731
1728 1732
1728 1733
1728 1734
1728 1735
1728 1736
1728 1737
1729 1730
1729 1731
1729 1732
1729 1733
1729 1734
1729 1735
1729 1736
1729 1737
1730 1731
1730 1732
1730 1733
1730 1734
1730 1735
1730 1736
1730 1737
1731 1732
1731 1733
1731 1734
1731 1735
1731 1736
1731 1737
1732 1733
1732 1734
1732 1735
1732 1736
1732 1737
1733 1734
1733 1735
1733 1736
1733 1737
1734 1735
1734 1736
1734 1737
1735 1736
1735 1737
1736 1737
1738 1739
1740 1741
1740 1742
1740 1743
1740 1744
1740 1745
1741 1742
1741 1743
1742 1744
1742 1745
1743 1744
1743 1745
1746 1757
1746 1758
1746 1766
1746 1767
1746 1768
1746 1769
1746 1771
1746 1778
1746 1779
1747 1748
1747 1749
1747 1750
1747 1751
1747 1752
1747 1753
1747 1754
1747 1780
1748 1749
1748 1750
1748 1751
1748 1752
1748 1753
1748 1754
1748 1780
1749 1750
1749 1751
1749 1752
1749 1753
1749 1754
1749 1780
1750 1751
1750 1752
1750 1753
1750 1754
1750 1780
1751 1752
1751 1753
1751 1754
1751 1780
1752 1753
1752 1754
1752 1780
1753 1754
1754 1780
1755 1757
1755 1758
1755 1766
1755 1778
1755 1779
1755 1801
1755 1802
1755 3302
1756 1766
1757 1758
1757 1766
1757 1767
1757 1768
1757 1769
1757 1770
1757 1771
1758 1769
1758 1771
1758 1803
1758 1804
1759 1760
1759 1761
1759 1762
1759 1763
1759 1764
1759 1765
1760 1761
1760 1762
1760 1763
1760 1764
1760 1765
1761 1762
1761 1763
1761 1764
1761 1765
1762 1763
1762 1764
1762 1765
1763 1764
1763 1765
1764 1765
1766 1767
1766 1771
1766 1804
1766 1811
1766 1924
1766 1925
1767 1771
1767 1778
1767 1779
1767 1799
1767 1924
1767 1925
1767 1934
1771 1798
1772 1773
1772 1774
1773 1774
1775 1776
1775 1777
1776 1777
1778 1798
1778 1934
1779 1934
1781 1782
1781 1783
1781 1784
1781 1785
1781 1786
1782 1783
1782 1784
1782 1785
1782 1786
1782 1808
1783 1784
1783 1785
1783 1786
1783 1808
1784 1785
1784 1786
1784 1808
1784 1809
1784 1810
1784 1817
1785 1786
1785 1808
1785 1809
1785 1810
1785 1817
1786 1808
1786 1809
1786 1810
1786 1817
1787 1788
1787 1789
1787 1790
1787 1791
1787 1792
1788 1789
1788 1790
1788 1791
1788 1792
1789 1790
1789 1791
1789 1792
1790 1791
1790 1792
1791 1792
1793 1794
1793 1795
1793 1796
1793 1797
1794 1795
1794 1796
1794 1797
1795 1796
1795 1797
1796 1797
1798 1924
1798 1925
1800 1814
1801 1934
1802 1934
1804 1934
1806 1934
1807 1812
1809 1810
1809 1817
1813 1814
1813 1815
1814 1815
1819 1820
1819 1821
1819 1822
1820 1821
1821 1822
1823 1824
1825 1826
1827 1828
1827 1829
1827 1830
1827 1833
1827 1834
1827 1873
1827 1874
1827 1875
1827 1876
1827 1877
1828 1829
1828 1830
1828 1833
1828 1834
1829 1830
1829 1833
1830 1834
1831 1832
1833 1834
1835 1836
1837 1838
1839 1840
1839 1915
1839 1917
1839 1918
1839 1919
1839 1920
1839 1921
1839 1922
1839 1923
1840 1910
1840 1911
1840 1912
1840 1913
1840 1914
1841 1842
1841 1843
1841 1844
1841 1845
1841 1846
1842 1843
1842 1844
1842 1845
1842 1846
1842 2257
1842 2259
1842 2261
1842 2857
1842 2886
1842 2887
1842 2888
1842 2890
1842 2891
1842 2892
1842 2893
1842 2894
1842 2904
1842 2905
1842 2906
1842 2909
1842 2910
1842 2911
1842 2913
1842 2914
1842 2915
1842 2916
1842 2917
1842 2919
1842 2920
1842 2921
1842 2922
1842 2923
1842 2924
1842 2925
1842 2926
1842 2927
1842 2928
1842 2929
1842 2930
1842 2931
1842 2932
1842 2933
1842 2934
1842 2935
1842 2936
1842 2937
1842 2938
1842 2939
1842 2940
1842 2941
1842 2942
1842 2943
1842 2944
1842 2945
1842 2946
1842 2947
1842 2948
1842 2952
1842 2953
1842 2954
1842 2955
1842 2958
1842 2959
1842 2960
1842 2961
1842 2962
1842 3381
1842 3382
1843 1844
1843 1845
1843 1846
1844 1845
1844 1846
1845 1846
1846 2257
1846 2259
1846 2261
1846 2857
1846 2886
1846 2887
1846 2888
1846 2890
1846 2891
1846 2892
1846 2893
1846 2894
1846 2904
1846 2905
1846 2906
1846 2909
1846 2910
1846 2911
1846 2913
1846 2914
1846 2915
1846 2916
1846 2917
1846 2919
1846 2920
1846 2921
1846 2922
1846 2923
1846 2924
1846 2925
1846 2926
1846 2927
1846 2928
1846 2929
1846 2930
1846 2931
1846 2932
1846 2933
1846 2934
1846 2935
1846 2936
1846 2937
1846 2938
1846 2939
1846 2940
1846 2941
1846 2942
1846 2943
1846 2944
1846 2945
1846 2946
1846 2947
1846 2948
1846 2952
1846 2953
1846 2954
1846 2955
1846 2958
1846 2959
1846 2960
1846 2961
1846 2962
1846 3381
1846 3382
1847 1848
1847 1849
1847 1850
1847 1851
1847 1852
1847 1853
1847 1854
1847 1855
1847 1856
1847 1857
1847 1858
1847 1859
1847 1860
1848 1849
1848 1850
1848 1851
1848 1852
1848 1853
1848 1854
1848 1855
1848 1856
1848 1857
1848 1858
1848 1859
1848 1860
1849 1850
1849 1851
1849 1852
1849 1853
1849 1854
1849 1855
1849 1856
1849 1857
1849 1858
1849 1859
1849 1860
1850 1851
1850 1852
1850 1853
1850 1854
1850 1855
1850 1856
1850 1857
1850 1858
1850 1859
1850 1860
1851 1852
1851 1853
1851 1854
1851 1855
1851 1856
1851 1857
1851 1858
1851 1859
1852 1853
1852 1854
1852 1855
1852 1856
1852 1857
1852 1858
1852 1859
1852 1860
1853 1854
1853 1855
1853 1856
1853 1857
1853 1858
1853 1859
1853 1860
1854 1855
1854 1856
1854 1857
1854 1858
1854 1859
1854 1860
1855 1856
1855 1857
1855 1858
1855 1859
1855 1860
1856 1857
1856 1858
1856 1859
1856 1860
1857 1858
1857 1859
1857 1860
1858 1859
1861 1862
1863 1864
1863 1865
1864 1865
1866 1867
1866 1868
1866 1869
1866 1870
1866 1871
1866 1872
1867 1868
1867 1869
1867 1870
1867 1871
1867 1872
1868 1869
1870 1871
1870 1872
1873 1874
1873 1875
1873 1876
1873 1877
1874 1875
1874 1876
1874 1877
1875 1876
1875 1877
1876 1877
1878 1879
1878 1880
1878 1881
1878 1882
1878 1883
1878 1884
1878 1885
1878 1886
1878 1887
1878 1888
1879 1880
1879 1881
1879 1882
1879 1883
1879 1884
1879 1885
1879 1886
1879 1887
1879 1888
1879 1889
1879 1890
1879 1891
1879 1892
1880 1881
1880 1882
1880 1883
1880 1884
1880 1885
1880 1886
1880 1887
1880 1889
1880 1890
1880 1891
1880 1892
1881 1882
1881 1883
1881 1884
1881 1885
1881 1886
1881 1887
1881 1888
1882 1883
1882 1884
1882 1885
1882 1886
1882 1887
1882 1888
1883 1884
1883 1885
1883 1886
1883 1887
1883 1888
1883 1889
1883 1890
1883 1891
1883 1892
1884 1885
1884 1886
1884 1887
1884 1888
1885 1886
1885 1887
1885 1888
1885 1889
1885 1890
1885 1891
1885 1892
1886 1887
1886 1888
1886 1889
1886 1890
1886 1891
1886 1892
1887 1888
1887 1889
1887 1890
1887 1891
1887 1892
1888 1889
1888 1890
1888 1891
1888 1892
1889 1890
1889 1891
1889 1892
1890 1891
1890 1892
1891 1892
1893 1894
1893 1895
1893 1896
1893 1897
1893 1898
1893 1899
1893 1900
1893 1901
1893 1902
1893 1903
1893 1904
1893 1905
1893 1906
1893 1907
1893 1908
1893 1909
1893 1916
1893 3296
1894 1895
1894 1896
1894 1897
1894 1898
1894 1899
1894 1900
1894 1901
1894 1902
1894 1903
1894 1904
1894 1905
1894 1906
1894 1907
1894 1908
1894 1909
1894 1916
1894 3296
1895 1896
1895 1897
1895 1898
1895 1899
1895 1900
1895 1901
1895 1902
1895 1903
1895 1904
1895 1905
1895 1906
1895 1907
1895 1908
1895 1909
1895 1916
1895 3296
1896 1897
1896 1898
1896 1899
1896 1900
1896 1901
1896 1902
1896 1903
1896 1904
1896 1905
1896 1906
1896 1907
1896 1908
1896 1909
1896 1916
1896 3296
1897 1898
1897 1899
1897 1900
1897 1901
1897 1902
1897 1903
1897 1904
1897 1905
1897 1906
1897 1907
1897 1908
1897 1909
1897 1916
1897 3296
1898 1899
1898 1900
1898 1901
1898 1902
1898 1903
1898 1904
1898 1905
1898 1906
1898 1907
1898 1908
1898 1909
1898 1916
1898 3296
1899 1900
1899 1901
1899 1902
1899 1903
1899 1904
1899 1905
1899 1906
1899 1907
1899 1908
1899 1909
1899 1916
1899 3296
1900 1901
1900 1902
1900 1903
1900 1904
1900 1905
1900 1906
1900 1907
1900 1908
1900 1909
1900 1916
1900 3296
1901 1902
1901 1903
1901 1904
1901 1905
1901 1906
1901 1907
1901 1908
1902 1903
1902 1904
1902 1905
1902 1906
1902 1907
1902 1908
1902 1909
1902 1916
1902 3296
1903 1904
1903 1905
1903 1906
1903 1907
1903 1908
1903 1909
1903 1916
1903 3296
1904 1905
1904 1906
1904 1907
1904 1908
1904 1909
1904 1916
1904 3296
1905 1906
1905 1907
1905 1908
1905 1909
1905 1916
1905 3296
1906 1907
1906 1908
1906 1909
1906 1916
1906 3296
1907 1908
1907 1909
1907 1916
1907 3296
1908 1909
1908 1916
1908 3296
1910 1915
1910 1917
1910 1918
1910 1919
1910 1920
1910 1921
1910 1922
1910 1923
1911 1915
1911 1917
1911 1918
1911 1919
1911 1920
1911 1921
1911 1922
1911 1923
1912 1915
1912 1917
1912 1918
1912 1919
1912 1920
1912 1921
1912 1922
1912 1923
1913 1915
1913 1917
1913 1918
1913 1919
1913 1920
1913 1921
1913 1922
1913 1923
1914 1915
1914 1917
1914 1918
1914 1919
1914 1920
1914 1921
1914 1922
1914 1923
1926 1927
1929 1930
1929 1931
1929 1932
1929 1933
1929 1935
1930 1931
1930 1932
1930 1933
1930 1935
1931 1932
1931 1933
1931 1935
1932 1933
1933 1935
1934 3302
1936 1937
1936 1938
1937 1938
1937 1939
1937 1940
1937 1941
1938 1939
1938 1940
1938 1941
1939 1940
1939 1941
1940 1941
1942 1943
1944 1945
1946 1947
1946 1948
1947 1948
1949 1950
1949 3533
1951 1952
1951 1953
1951 1954
1951 1956
1951 1959
1952 1953
1952 1954
1952 1955
1952 1956
1952 1957
1952 1958
1952 1959
1953 1954
1953 1955
1953 1957
1953 1958
1954 1955
1954 1956
1954 1957
1954 1958
1954 1959
1955 1956
1955 1959
1956 1957
1956 1958
1957 1959
1958 1959
1960 1961
1960 1962
1960 1963
1960 3551
1961 1962
1961 1963
1961 3551
1962 1963
1963 3551
1964 1965
1966 1967
1966 1968
1967 1968
1969 1970
1969 3582
1969 3583
1970 3582
1970 3583
1971 1972
1971 1973
1972 1973
1974 1975
1974 1976
1975 1976
1975 1977
1976 1977
1978 1979
1978 1980
1978 1981
1978 1982
1978 1983
1979 1980
1979 1981
1979 1982
1979 1983
1980 1981
1980 1982
1980 1983
1981 1982
1981 1983
1982 1983
1984 1985
1984 1986
1984 1987
1984 1988
1984 1989
1984 1990
1984 1991
1984 1992
1984 1993
1984 1994
1984 1995
1984 1996
1984 1997
1984 1998
1985 1986
1985 1987
1985 1988
1985 1989
1985 1990
1985 1991
1985 1992
1985 1993
1985 1994
1985 1995
1985 1996
1985 1997
1985 1998
1985 3305
1986 1987
1986 1988
1986 1989
1986 1990
1986 1991
1986 1992
1986 1993
1986 1994
1986 1995
1986 1996
1986 1997
1986 1998
1986 3305
1987 1988
1987 1989
1987 1990
1987 1991
1987 1992
1987 1993
1987 1994
1987 1995
1987 1996
1987 1997
1987 1998
1987 3305
1988 1989
1988 1990
1988 1991
1988 1992
1988 1993
1988 1994
1988 1995
1988 1996
1988 1997
1988 1998
1988 3305
1989 1990
1989 1991
1989 1992
1989 1993
1989 1994
1989 1995
1989 1996
1989 1997
1989 1998
1989 3305
1990 1991
1990 1992
1990 1993
1990 1994
1990 1995
1990 1996
1990 1997
1990 1998
1990 2634
1990 3305
1991 1992
1991 1993
1991 1994
1991 1995
1991 1996
1991 1997
1991 1998
1991 3305
1992 1993
1992 1994
1992 1995
1992 1996
1992 1997
1992 1998
1992 3305
1993 1994
1993 1995
1993 1996
1993 1997
1993 1998
1993 3305
1994 1995
1994 1996
1994 1997
1994 1998
1994 3305
1995 1996
1995 1997
1995 1998
1995 3305
1996 1997
1996 1998
1996 3305
1997 1998
1997 3305
1998 3305
1999 2000
1999 2001
2000 2001
2000 3298
2001 3298
2002 2003
2002 2004
2002 2005
2002 2006
2002 2007
2002 3163
2002 3164
2002 3166
2002 3566
2003 2004
2003 2005
2003 2006
2003 2007
2003 3566
2004 2005
2004 2006
2004 2007
2004 3566
2005 2006
2005 2007
2006 2007
2006 3566
2007 3566
2008 2009
2008 3213
2012 2013
2012 2014
2012 2015
2013 2014
2013 2015
2016 2017
2016 2018
2016 2019
2016 2020
2016 2021
2016 2022
2016 2023
2017 2018
2017 2019
2017 2020
2017 2021
2017 2022
2017 2023
2017 3198
2018 2019
2018 2020
2018 2021
2018 2022
2018 2023
2018 3198
2019 2020
2019 2021
2019 2022
2019 2023
2019 3198
2020 2021
2020 2022
2020 2023
2020 2024
2020 2025
2020 3198
2021 2022
2021 2023
2021 2024
2021 2025
2021 3198
2022 2023
2022 2024
2022 2025
2022 3198
2023 2024
2023 2025
2023 3198
2024 2025
2026 2027
2026 2028
2026 2029
2026 2030
2026 2031
2026 2032
2026 2033
2026 2034
2026 2035
2026 2036
2026 3220
2027 2028
2027 2029
2027 2030
2027 2031
2027 2032
2027 2033
2027 2034
2027 2035
2027 2036
2027 3220
2028 2029
2028 2030
2028 2031
2028 2032
2028 2033
2028 2034
2028 2035
2028 2036
2028 3220
2029 2030
2029 2031
2029 2032
2029 2033
2029 2034
2029 2035
2029 2036
2029 3220
2030 2031
2030 2032
2030 2033
2030 2034
2030 2035
2030 2036
2030 3220
2031 2032
2031 2033
2031 2034
2031 2035
2031 2036
2031 2037
2031 2038
2031 2039
2031 2040
2031 2041
2031 2042
2031 2043
2031 2044
2031 2045
2031 2046
2031 2047
2031 2048
2031 3214
2031 3215
2031 3216
2031 3217
2031 3218
2031 3219
2031 3220
2031 3221
2032 2033
2032 2034
2032 2035
2032 2036
2032 3220
2033 2034
2033 2035
2033 2036
2033 2037
2033 2038
2033 2039
2033 2040
2033 2041
2033 2042
2033 2043
2033 2044
2033 2045
2033 2046
2033 2047
2033 2048
2033 3214
2033 3215
2033 3216
2033 3217
2033 3218
2033 3219
2033 3220
2033 3221
2034 2035
2034 2036
2034 2037
2034 2038
2034 2039
2034 2040
2034 2041
2034 2042
2034 2043
2034 2044
2034 2045
2034 2046
2034 2047
2034 2048
2034 3214
2034 3215
2034 3216
2034 3217
2034 3218
2034 3219
2034 3220
2034 3221
2035 2036
2035 3220
2036 2037
2036 2038
2036 2039
2036 2040
2036 2041
2036 2042
2036 2043
2036 2044
2036 2045
2036 2046
2036 2047
2036 2048
2036 3214
2036 3215
2036 3216
2036 3217
2036 3218
2036 3219
2036 3220
2036 3221
2037 2038
2037 2039
2037 2040
2037 2041
2037 2042
2037 2043
2037 2044
2037 2045
2037 2046
2037 2047
2037 2048
2037 3221
2038 2039
2038 2040
2038 2041
2038 2042
2038 2043
2038 2044
2038 2045
2038 2046
2038 2047
2038 2048
2038 3214
2038 3215
2038 3216
2038 3217
2038 3218
2038 3219
2038 3221
2039 2040
2039 2041
2039 2042
2039 2043
2039 2044
2039 2045
2039 2046
2039 2047
2039 2048
2039 3221
2040 2041
2040 2042
2040 2043
2040 2044
2040 2045
2040 2046
2040 2047
2040 2048
2040 3221
2041 2042
2041 2043
2041 2044
2041 2045
2041 2046
2041 2047
2041 2048
2041 3214
2041 3215
2041 3216
2041 3217
2041 3218
2041 3219
2041 3221
2042 2043
2042 2044
2042 2045
2042 2046
2042 2047
2042 2048
2043 2044
2043 2045
2043 2046
2043 2047
2043 2048
2043 3221
2044 2045
2044 2046
2044 2047
2044 2048
2044 3221
2045 2046
2045 2047
2045 2048
2045 3221
2046 2047
2046 2048
2046 3221
2047 2048
2047 3221
2048 3221
2049 2050
2049 2051
2049 2052
2049 2053
2049 2054
2049 2055
2049 2056
2049 2057
2049 2058
2049 2060
2049 2063
2049 2068
2050 2051
2050 2052
2050 2055
2050 2056
2050 2057
2050 2058
2050 2059
2050 2060
2051 2052
2051 2053
2051 2054
2051 2055
2051 2056
2051 2057
2051 2058
2051 2059
2051 2061
2051 2062
2051 2063
2051 2064
2051 2065
2051 2066
2051 2067
2051 2068
2051 2069
2051 2070
2051 2071
2051 3156
2051 3157
2051 3158
2051 3159
2051 3160
2052 2053
2052 2054
2052 2059
2052 2060
2053 2055
2053 2056
2053 2057
2053 2058
2053 2059
2053 2060
2054 2055
2054 2056
2054 2057
2054 2058
2054 2059
2054 2060
2055 2059
2055 2060
2056 2059
2056 2060
2057 2059
2057 2060
2058 2059
2058 2060
2059 2060
2059 2063
2059 2068
2060 2061
2060 2062
2060 2063
2060 2064
2060 2065
2060 2066
2060 2067
2060 2068
2060 2069
2060 2070
2060 2071
2060 3156
2060 3157
2060 3158
2060 3159
2060 3160
2060 3412
2061 2062
2061 2063
2061 2064
2061 2065
2061 2068
2061 2154
2061 2155
2061 2156
2061 2157
2061 2158
2061 2160
2061 2161
2061 2162
2061 2163
2061 2175
2061 2176
2061 2185
2061 2186
2061 2191
2061 2192
2061 2195
2061 2196
2061 2197
2061 2198
2061 2199
2061 2200
2061 2201
2061 2202
2061 2203
2061 2204
2061 2205
2061 2206
2061 2207
2061 2209
2061 2210
2061 2211
2061 2212
2061 2213
2061 2214
2061 2217
2061 2218
2061 2219
2061 2220
2061 2221
2061 2222
2061 2227
2061 2228
2061 2229
2061 2230
2061 2233
2061 2234
2061 2235
2061 2236
2061 2237
2061 2238
2061 2283
2061 2304
2061 3142
2061 3162
2061 3171
2061 3197
2061 3260
2061 3306
2061 3314
2061 3349
2061 3353
2061 3380
2061 3392
2061 3393
2061 3412
2061 3438
2061 3450
2061 3499
2061 3511
2061 3568
2061 3690
2061 3691
2061 3692
2062 2063
2062 2064
2062 2065
2062 2068
2063 2064
2063 2065
2063 2066
2063 2067
2063 2069
2063 2070
2063 2071
2063 3156
2063 3157
2063 3158
2063 3159
2063 3160
2064 2065
2064 2068
2064 2154
2064 3412
2065 2068
2065 3412
2066 2067
2066 2068
2066 2069
2066 3156
2067 2068
2067 2069
2067 2070
2067 2071
2068 2069
2068 2070
2068 2071
2068 3156
2068 3157
2068 3158
2068 3159
2068 3160
2068 3412
2069 2070
2069 2071
2069 3156
2070 3156
2071 3156
2072 3356
2073 2074
2073 2075
2073 2076
2073 2077
2074 2075
2074 2076
2074 2077
2075 2076
2075 2077
2076 2077
2078 2079
2078 2080
2078 2081
2078 2082
2078 2083
2078 2084
2078 2085
2078 2086
2078 2087
2078 2088
2078 2089
2078 2090
2078 2091
2078 2092
2078 2093
2078 2094
2078 2095
2078 2096
2078 2097
2078 2098
2078 2099
2078 2100
2078 2101
2078 2102
2078 2103
2078 2104
2078 2105
2078 2106
2078 2107
2078 2108
2078 2109
2078 2110
2078 2111
2078 2112
2078 2113
2078 2114
2078 2115
2078 2116
2078 2117
2078 2118
2078 2119
2078 2120
2078 2121
2078 2122
2078 2123
2078 2124
2078 2125
2078 2126
2078 2127
2078 2128
2078 2129
2078 2130
2078 2131
2079 2080
2079 2081
2079 2082
2079 2083
2079 2084
2079 2085
2079 2086
2079 2087
2079 2088
2079 2089
2079 2090
2079 2091
2079 2092
2079 2093
2079 2094
2079 2095
2079 2096
2079 2097
2079 2098
2079 2099
2079 2100
2079 2101
2079 2102
2079 2103
2079 2104
2079 2105
2079 2106
2079 2107
2079 2108
2079 2109
2079 2110
2079 2111
2079 2112
2079 2113
2079 2114
2079 2115
2079 2116
2079 2117
2079 2118
2079 2119
2079 2120
2079 2121
2079 2122
2079 2123
2079 2124
2079 2125
2079 2126
2079 2127
2079 2128
2079 2129
2079 2130
2079 2131
2080 2081
2080 2082
2080 2083
2080 2084
2080 2085
2080 2086
2080 2087
2080 2088
2080 2089
2080 2090
2080 2091
2080 2092
2080 2093
2080 2094
2080 2095
2080 2096
2080 2097
2080 2098
2080 2099
2080 2100
2080 2101
2080 2102
2080 2103
2080 2104
2080 2105
2080 2106
2080 2107
2080 2108
2080 2109
2080 2110
2080 2111
2080 2112
2080 2113
2080 2114
2080 2115
2080 2116
2080 2117
2080 2118
2080 2119
2080 2120
2080 2121
2080 2122
2080 2123
2080 2124
2080 2125
2080 2126
2080 2127
2080 2128
2080 2129
2080 2130
2080 2131
2081 2082
2081 2083
2081 2084
2081 2085
2081 2086
2081 2087
2081 2088
2081 2089
2081 2090
2081 2091
2081 2092
2081 2093
2081 2094
2081 2095
2081 2096
2081 2097
2081 2098
2081 2099
2081 2100
2081 2101
2081 2102
2081 2103
2081 2104
2081 2105
2081 2106
2081 2107
2081 2108
2081 2109
2081 2110
2081 2111
2081 2112
2081 2113
2081 2114
2081 2115
2081 2116
2081 2117
2081 2118
2081 2119
2081 2120
2081 2121
2081 2122
2081 2123
2081 2124
2081 2125
2081 2126
2081 2127
2081 2128
2081 2129
2081 2130
2081 2131
2082 2083
2082 2084
2082 2085
2082 2086
2082 2087
2082 2088
2082 2089
2082 2090
2082 2091
2082 2092
2082 2093
2082 2094
2082 2095
2082 2096
2082 2097
2082 2098
2082 2099
2082 2100
2082 2101
2082 2102
2082 2103
2082 2104
2082 2105
2082 2106
2082 2107
2082 2108
2082 2109
2082 2110
2082 2111
2082 2112
2082 2113
2082 2114
2082 2115
2082 2116
2082 2117
2082 2118
2082 2119
2082 2120
2082 2121
2082 2122
2082 2123
2082 2124
2082 2125
2082 2126
2082 2127
2082 2128
2082 2129
2082 2130
2082 2131
2083 2084
2083 2085
2083 2086
2083 2087
2083 2088
2083 2089
2083 2090
2083 2091
2083 2092
2083 2093
2083 2094
2083 2095
2083 2096
2083 2097
2083 2098
2083 2099
2083 2100
2083 2101
2083 2102
2083 2103
2083 2104
2083 2105
2083 2106
2083 2107
2083 2108
2083 2109
2083 2110
2083 2111
2083 2112
2083 2113
2083 2114
2083 2115
2083 2116
2083 2117
2083 2118
2083 2119
2083 2120
2083 2121
2083 2122
2083 2123
2083 2124
2083 2125
2083 2126
2083 2127
2083 2128
2083 2129
2083 2130
2083 2131
2084 2085
2084 2086
2084 2087
2084 2088
2084 2089
2084 2090
2084 2091
2084 2092
2084 2093
2084 2094
2084 2095
2084 2096
2084 2097
2084 2098
2084 2099
2084 2100
2084 2101
2084 2102
2084 2103
2084 2104
2084 2105
2084 2106
2084 2107
2084 2108
2084 2109
2084 2110
2084 2111
2084 2112
2084 2113
2084 2114
2084 2115
2084 2116
2084 2117
2084 2118
2084 2119
2084 2120
2084 2121
2084 2122
2084 2123
2084 2124
2084 2125
2084 2126
2084 2127
2084 2128
2084 2129
2084 2130
2084 2131
2085 2086
2085 2087
2085 2088
2085 2089
2085 2090
2085 2091
2085 2092
2085 2093
2085 2094
2085 2095
2085 2096
2085 2097
2085 2098
2085 2099
2085 2100
2085 2101
2085 2102
2085 2103
2085 2104
2085 2105
2085 2106
2085 2107
2085 2108
2085 2109
2085 2110
2085 2111
2085 2112
2085 2113
2085 2114
2085 2115
2085 2116
2085 2117
2085 2118
2085 2119
2085 2120
2085 2121
2085 2122
2085 2123
2085 2124
2085 2125
2085 2126
2085 2127
2085 2130
2085 2131
2086 2087
2086 2088
2086 2089
2086 2090
2086 2091
2086 2092
2086 2093
2086 2094
2086 2095
2086 2096
2086 2097
2086 2098
2086 2099
2086 2100
2086 2101
2086 2102
2086 2103
2086 2104
2086 2105
2086 2106
2086 2107
2086 2108
2086 2109
2086 2110
2086 2111
2086 2112
2086 2113
2086 2114
2086 2115
2086 2116
2086 2117
2086 2118
2086 2119
2086 2120
2086 2121
2086 2122
2086 2123
2086 2124
2086 2125
2086 2126
2086 2127
2086 2128
2086 2129
2086 2130
2086 2131
2087 2088
2087 2089
2087 2090
2087 2091
2087 2092
2087 2093
2087 2094
2087 2095
2087 2096
2087 2097
2087 2098
2087 2099
2087 2100
2087 2101
2087 2102
2087 2103
2087 2104
2087 2105
2087 2106
2087 2107
2087 2108
2087 2109
2087 2110
2087 2111
2087 2112
2087 2113
2087 2114
2087 2115
2087 2116
2087 2117
2087 2118
2087 2119
2087 2120
2087 2121
2087 2122
2087 2123
2087 2124
2087 2125
2087 2126
2087 2127
2087 2128
2087 2129
2087 2130
2087 2131
2088 2089
2088 2090
2088 2091
2088 2092
2088 2093
2088 2094
2088 2095
2088 2096
2088 2097
2088 2098
2088 2099
2088 2100
2088 2101
2088 2102
2088 2103
2088 2104
2088 2105
2088 2106
2088 2107
2088 2108
2088 2109
2088 2110
2088 2111
2088 2112
2088 2113
2088 2114
2088 2115
2088 2116
2088 2117
2088 2118
2088 2119
2088 2120
2088 2121
2088 2122
2088 2123
2088 2124
2088 2125
2088 2126
2088 2127
2088 2128
2088 2129
2088 2130
2088 2131
2089 2090
2089 2091
2089 2092
2089 2093
2089 2094
2089 2095
2089 2096
2089 2097
2089 2098
2089 2099
2089 2100
2089 2101
2089 2102
2089 2103
2089 2104
2089 2105
2089 2106
2089 2107
2089 2108
2089 2109
2089 2110
2089 2111
2089 2112
2089 2113
2089 2114
2089 2115
2089 2116
2089 2117
2089 2118
2089 2119
2089 2120
2089 2121
2089 2122
2089 2123
2089 2124
2089 2125
2089 2126
2089 2127
2089 2128
2089 2129
2090 2091
2090 2092
2090 2093
2090 2094
2090 2095
2090 2096
2090 2097
2090 2098
2090 2099
2090 2100
2090 2101
2090 2102
2090 2103
2090 2104
2090 2105
2090 2106
2090 2107
2090 2108
2090 2109
2090 2110
2090 2111
2090 2112
2090 2113
2090 2114
2090 2115
2090 2116
2090 2117
2090 2118
2090 2119
2090 2120
2090 2121
2090 2122
2090 2123
2090 2124
2090 2125
2090 2126
2090 2127
2090 2128
2090 2129
2090 2130
2090 2131
2090 3286
2090 3297
2091 2092
2091 2093
2091 2094
2091 2095
2091 2096
2091 2097
2091 2098
2091 2099
2091 2100
2091 2101
2091 2102
2091 2103
2091 2104
2091 2105
2091 2106
2091 2107
2091 2108
2091 2109
2091 2110
2091 2111
2091 2112
2091 2113
2091 2114
2091 2115
2091 2116
2091 2117
2091 2118
2091 2119
2091 2120
2091 2121
2091 2122
2091 2123
2091 2124
2091 2125
2091 2126
2091 2127
2091 2128
2091 2129
2091 2130
2091 2131
2092 2093
2092 2094
2092 2095
2092 2096
2092 2097
2092 2098
2092 2099
2092 2100
2092 2101
2092 2102
2092 2103
2092 2104
2092 2105
2092 2106
2092 2107
2092 2108
2092 2109
2092 2110
2092 2111
2092 2112
2092 2113
2092 2114
2092 2115
2092 2116
2092 2117
2092 2118
2092 2119
2092 2120
2092 2121
2092 2122
2092 2123
2092 2124
2092 2125
2092 2126
2092 2127
2092 2128
2092 2129
2092 2130
2092 2131
2093 2094
2093 2095
2093 2096
2093 2097
2093 2098
2093 2099
2093 2100
2093 2101
2093 2102
2093 2103
2093 2104
2093 2105
2093 2106
2093 2107
2093 2108
2093 2109
2093 2110
2093 2111
2093 2112
2093 2113
2093 2114
2093 2115
2093 2116
2093 2117
2093 2118
2093 2119
2093 2120
2093 2121
2093 2122
2093 2123
2093 2124
2093 2125
2093 2126
2093 2127
2093 2128
2093 2129
2093 2130
2093 2131
2094 2095
2094 2096
2094 2097
2094 2098
2094 2099
2094 2100
2094 2101
2094 2102
2094 2103
2094 2104
2094 2105
2094 2106
2094 2107
2094 2108
2094 2109
2094 2110
2094 2111
2094 2112
2094 2113
2094 2114
2094 2115
2094 2116
2094 2117
2094 2118
2094 2119
2094 2120
2094 2121
2094 2122
2094 2123
2094 2124
2094 2125
2094 2126
2094 2127
2094 2128
2094 2129
2094 2130
2094 2131
2095 2096
2095 2097
2095 2098
2095 2099
2095 2100
2095 2101
2095 2102
2095 2103
2095 2104
2095 2105
2095 2106
2095 2107
2095 2108
2095 2109
2095 2110
2095 2111
2095 2112
2095 2113
2095 2114
2095 2115
2095 2116
2095 2117
2095 2118
2095 2119
2095 2120
2095 2121
2095 2122
2095 2123
2095 2124
2095 2125
2095 2126
2095 2127
2095 2128
2095 2129
2095 2130
2095 2131
2096 2097
2096 2098
2096 2099
2096 2100
2096 2101
2096 2102
2096 2103
2096 2104
2096 2105
2096 2106
2096 2107
2096 2108
2096 2109
2096 2110
2096 2111
2096 2112
2096 2113
2096 2114
2096 2115
2096 2116
2096 2117
2096 2118
2096 2119
2096 2120
2096 2121
2096 2122
2096 2123
2096 2124
2096 2125
2096 2126
2096 2127
2096 2128
2096 2129
2096 2130
2096 2131
2097 2098
2097 2099
2097 2100
2097 2101
2097 2102
2097 2103
2097 2104
2097 2105
2097 2106
2097 2107
2097 2108
2097 2109
2097 2110
2097 2111
2097 2112
2097 2113
2097 2114
2097 2115
2097 2116
2097 2117
2097 2118
2097 2119
2097 2120
2097 2121
2097 2122
2097 2123
2097 2124
2097 2125
2097 2126
2097 2127
2097 2128
2097 2129
2097 2130
2097 2131
2098 2099
2098 2100
2098 2101
2098 2102
2098 2103
2098 2104
2098 2105
2098 2106
2098 2107
2098 2108
2098 2109
2098 2110
2098 2111
2098 2112
2098 2113
2098 2114
2098 2115
2098 2116
2098 2117
2098 2118
2098 2119
2098 2120
2098 2121
2098 2122
2098 2123
2098 2124
2098 2125
2098 2126
2098 2127
2098 2128
2098 2129
2098 2130
2098 2131
2099 2100
2099 2101
2099 2102
2099 2103
2099 2104
2099 2105
2099 2106
2099 2107
2099 2108
2099 2109
2099 2110
2099 2111
2099 2112
2099 2113
2099 2114
2099 2115
2099 2116
2099 2117
2099 2118
2099 2119
2099 2120
2099 2121
2099 2122
2099 2123
2099 2124
2099 2125
2099 2126
2099 2127
2099 2128
2099 2129
2099 2130
2099 2131
2100 2101
2100 2102
2100 2103
2100 2104
2100 2105
2100 2106
2100 2107
2100 2108
2100 2109
2100 2110
2100 2111
2100 2112
2100 2113
2100 2114
2100 2115
2100 2116
2100 2117
2100 2118
2100 2119
2100 2120
2100 2121
2100 2122
2100 2123
2100 2124
2100 2125
2100 2126
2100 2127
2100 2128
2100 2129
2100 2130
2100 2131
2101 2102
2101 2103
2101 2104
2101 2105
2101 2106
2101 2107
2101 2108
2101 2109
2101 2110
2101 2111
2101 2112
2101 2113
2101 2114
2101 2115
2101 2116
2101 2117
2101 2118
2101 2119
2101 2120
2101 2121
2101 2122
2101 2123
2101 2124
2101 2125
2101 2126
2101 2127
2101 2128
2101 2129
2101 2130
2101 2131
2102 2103
2102 2104
2102 2105
2102 2106
2102 2107
2102 2108
2102 2109
2102 2110
2102 2111
2102 2112
2102 2113
2102 2114
2102 2115
2102 2116
2102 2117
2102 2118
2102 2119
2102 2120
2102 2121
2102 2122
2102 2123
2102 2124
2102 2125
2102 2126
2102 2127
2102 2128
2102 2129
2102 2130
2102 2131
2103 2104
2103 2105
2103 2106
2103 2107
2103 2108
2103 2109
2103 2110
2103 2111
2103 2112
2103 2113
2103 2114
2103 2115
2103 2116
2103 2117
2103 2118
2103 2119
2103 2120
2103 2121
2103 2122
2103 2123
2103 2124
2103 2125
2103 2126
2103 2127
2103 2128
2103 2129
2103 2130
2103 2131
2104 2105
2104 2106
2104 2107
2104 2108
2104 2109
2104 2110
2104 2111
2104 2112
2104 2113
2104 2114
2104 2115
2104 2116
2104 2117
2104 2118
2104 2119
2104 2120
2104 2121
2104 2122
2104 2123
2104 2124
2104 2125
2104 2126
2104 2127
2104 2128
2104 2129
2104 2130
2104 2131
2105 2106
2105 2107
2105 2108
2105 2109
2105 2110
2105 2111
2105 2112
2105 2113
2105 2114
2105 2115
2105 2116
2105 2117
2105 2118
2105 2119
2105 2120
2105 2121
2105 2122
2105 2123
2105 2124
2105 2125
2105 2126
2105 2127
2105 2128
2105 2129
2105 2130
2105 2131
2106 2107
2106 2108
2106 2109
2106 2110
2106 2111
2106 2112
2106 2113
2106 2114
2106 2115
2106 2116
2106 2117
2106 2118
2106 2119
2106 2120
2106 2121
2106 2122
2106 2123
2106 2124
2106 2125
2106 2126
2106 2127
2106 2128
2106 2129
2106 2130
2106 2131
2107 2108
2107 2109
2107 2110
2107 2111
2107 2112
2107 2113
2107 2114
2107 2115
2107 2116
2107 2117
2107 2118
2107 2119
2107 2120
2107 2121
2107 2122
2107 2123
2107 2124
2107 2125
2107 2126
2107 2127
2107 2130
2107 2131
2108 2109
2108 2110
2108 2111
2108 2112
2108 2113
2108 2114
2108 2115
2108 2116
2108 2117
2108 2118
2108 2119
2108 2120
2108 2121
2108 2122
2108 2123
2108 2124
2108 2125
2108 2126
2108 2127
2108 2128
2108 2129
2108 2130
2108 2131
2109 2110
2109 2111
2109 2112
2109 2113
2109 2114
2109 2115
2109 2116
2109 2117
2109 2118
2109 2119
2109 2120
2109 2121
2109 2122
2109 2123
2109 2124
2109 2125
2109 2126
2109 2127
2109 2128
2109 2129
2109 2130
2109 2131
2110 2111
2110 2112
2110 2113
2110 2114
2110 2115
2110 2116
2110 2117
2110 2118
2110 2119
2110 2120
2110 2121
2110 2122
2110 2123
2110 2124
2110 2125
2110 2126
2110 2127
2110 2128
2110 2129
2110 2130
2110 2131
2111 2112
2111 2113
2111 2114
2111 2115
2111 2116
2111 2117
2111 2118
2111 2119
2111 2120
2111 2121
2111 2122
2111 2123
2111 2124
2111 2125
2111 2126
2111 2127
2111 2128
2111 2129
2111 2130
2111 2131
2112 2113
2112 2114
2112 2115
2112 2116
2112 2117
2112 2118
2112 2119
2112 2120
2112 2121
2112 2122
2112 2123
2112 2124
2112 2125
2112 2126
2112 2127
2112 2128
2112 2129
2112 2130
2112 2131
2113 2114
2113 2115
2113 2116
2113 2117
2113 2118
2113 2119
2113 2120
2113 2121
2113 2122
2113 2123
2113 2124
2113 2125
2113 2126
2113 2127
2113 2128
2113 2129
2113 2130
2113 2131
2114 2115
2114 2116
2114 2117
2114 2118
2114 2119
2114 2120
2114 2121
2114 2122
2114 2123
2114 2124
2114 2125
2114 2126
2114 2127
2114 2128
2114 2129
2114 2130
2114 2131
2115 2116
2115 2117
2115 2118
2115 2119
2115 2120
2115 2121
2115 2122
2115 2123
2115 2124
2115 2125
2115 2126
2115 2127
2115 2128
2115 2129
2115 2130
2115 2131
2116 2117
2116 2118
2116 2119
2116 2120
2116 2121
2116 2122
2116 2123
2116 2124
2116 2125
2116 2126
2116 2127
2116 2128
2116 2129
2116 2130
2116 2131
2117 2118
2117 2119
2117 2120
2117 2121
2117 2122
2117 2123
2117 2124
2117 2125
2117 2126
2117 2127
2117 2128
2117 2129
2117 2130
2117 2131
2118 2119
2118 2120
2118 2121
2118 2122
2118 2123
2118 2124
2118 2125
2118 2126
2118 2127
2118 2128
2118 2129
2118 2130
2118 2131
2119 2120
2119 2121
2119 2122
2119 2123
2119 2124
2119 2125
2119 2126
2119 2127
2119 2128
2119 2129
2119 2130
2119 2131
2120 2121
2120 2122
2120 2123
2120 2124
2120 2125
2120 2126
2120 2127
2120 2128
2120 2129
2120 2130
2120 2131
2121 2122
2121 2123
2121 2124
2121 2125
2121 2126
2121 2127
2121 2128
2121 2129
2121 2130
2121 2131
2122 2123
2122 2124
2122 2125
2122 2126
2122 2127
2122 2128
2122 2129
2122 2130
2122 2131
2123 2124
2123 2125
2123 2126
2123 2127
2123 2128
2123 2129
2123 2130
2123 2131
2124 2125
2124 2126
2124 2127
2124 2128
2124 2129
2124 2130
2124 2131
2125 2126
2125 2127
2125 2128
2125 2129
2125 2130
2125 2131
2126 2127
2126 2128
2126 2129
2127 2128
2127 2129
2127 2130
2127 2131
2128 2129
2130 2131
2132 2133
2132 2135
2133 2134
2133 2136
2133 2137
2133 2138
2133 2635
2134 2135
2135 2136
2135 2137
2135 2138
2135 2635
2139 2140
2139 2141
2140 2141
2142 2143
2142 2144
2142 2145
2143 2144
2143 2145
2144 2145
2145 2146
2145 2147
2146 2147
2149 2150
2149 2151
2149 2152
2149 2153
2150 2151
2150 2152
2150 2153
2154 2155
2154 2156
2154 2157
2154 2158
2154 2160
2154 2161
2154 2162
2154 2163
2154 2175
2154 2176
2154 2185
2154 2186
2154 2191
2154 2192
2154 2195
2154 2196
2154 2197
2154 2198
2154 2199
2154 2200
2154 2201
2154 2202
2154 2203
2154 2204
2154 2205
2154 2206
2154 2207
2154 2209
2154 2210
2154 2211
2154 2212
2154 2213
2154 2214
2154 2217
2154 2218
2154 2219
2154 2220
2154 2221
2154 2222
2154 2227
2154 2228
2154 2229
2154 2230
2154 2233
2154 2234
2154 2237
2154 2238
2154 2283
2154 2304
2154 3142
2154 3162
2154 3171
2154 3197
2154 3260
2154 3306
2154 3314
2154 3349
2154 3353
2154 3380
2154 3392
2154 3393
2154 3438
2154 3450
2154 3499
2154 3511
2154 3568
2154 3690
2154 3691
2154 3692
2160 2161
2160 3542
2160 3543
2164 2165
2166 2167
2168 2169
2168 2170
2168 2171
2168 2172
2168 2173
2168 2174
2168 2215
2168 2216
2169 2170
2169 2171
2169 2172
2169 2173
2169 2174
2169 2215
2169 2216
2170 2171
2170 2172
2170 2173
2170 2174
2170 2215
2170 2216
2171 2172
2171 2173
2171 2174
2171 2215
2171 2216
2172 2173
2172 2174
2172 2215
2172 2216
2173 2174
2173 2215
2174 2216
2177 2178
2178 2183
2178 2184
2179 2180
2179 2181
2180 2181
2180 2182
2181 2182
2181 3107
2181 3108
2181 3109
2181 3110
2181 3111
2181 3112
2181 3113
2181 3114
2181 3115
2181 3116
2181 3117
2181 3118
2181 3119
2181 3120
2181 3121
2187 2188
2189 2190
2193 2194
2223 2224
2223 2225
2223 2226
2224 2225
2224 2226
2225 2226
2231 2232
2235 2236
2239 2240
2239 2251
2239 2252
2239 2253
2239 2255
2239 2256
2239 2274
2239 2275
2239 2276
2239 2288
2239 2289
2239 2290
2239 2291
2239 2292
2239 2296
2239 2298
2239 2299
2239 2302
2239 2303
2239 2305
2239 2306
2239 2308
2239 2309
2239 2311
2239 2312
2239 2315
2239 2316
2239 2320
2239 2326
2239 2329
2239 2330
2239 2382
2239 2383
2239 2384
2239 2385
2239 2386
2239 2387
2239 2388
2239 2389
2239 2390
2239 2557
2239 2558
2239 2559
2239 2562
2239 2564
2239 2565
2239 2570
2239 2571
2239 2589
2242 2243
2242 2244
2243 2244
2243 2245
2243 2246
2244 2245
2244 2246
2247 2248
2247 2249
2247 2250
2248 2249
2248 2250
2249 2250
2257 2258
2257 2259
2257 2260
2257 2261
2257 2634
2257 2894
2257 2910
2257 2913
2257 2914
2257 2915
2257 2917
2257 2925
2257 2928
2257 2932
2257 2933
2257 2934
2257 2935
2257 2936
2257 2937
2257 2938
2257 2939
2257 2940
2257 2941
2257 2942
2257 2943
2257 2944
2257 2945
2257 2946
2257 2947
2257 2948
2257 2952
2257 2953
2257 2954
2257 2955
2257 2958
2257 2959
2257 2960
2257 2961
2257 2962
2257 2987
2257 2988
2257 2989
2257 2990
2257 2991
2257 2992
2257 2993
2257 2994
2257 2996
2257 2997
2257 2999
2257 3000
2257 3001
2257 3002
2257 3004
2257 3005
2257 3006
2258 2259
2258 2260
2258 2261
2259 2260
2259 2261
2259 2634
2259 2894
2259 2910
2259 2913
2259 2914
2259 2915
2259 2917
2259 2925
2259 2928
2259 2932
2259 2933
2259 2934
2259 2935
2259 2936
2259 2937
2259 2938
2259 2939
2259 2940
2259 2941
2259 2942
2259 2943
2259 2944
2259 2945
2259 2946
2259 2947
2259 2948
2259 2952
2259 2953
2259 2954
2259 2955
2259 2958
2259 2959
2259 2960
2259 2961
2259 2962
2259 2987
2259 2988
2259 2989
2259 2990
2259 2991
2259 2992
2259 2993
2259 2994
2259 2996
2259 2997
2259 2999
2259 3000
2259 3001
2259 3002
2259 3004
2259 3005
2259 3006
2260 2261
2260 2894
2260 2910
2260 2913
2260 2914
2260 2915
2260 2917
2260 2925
2260 2928
2260 2932
2260 2940
2260 2943
2260 2945
2260 2947
2260 2948
2260 2954
2260 2955
2260 2960
2260 2961
2260 2962
2260 2987
2260 2988
2260 2989
2260 2990
2260 2991
2260 2992
2260 2993
2260 2994
2261 2634
2261 2894
2261 2910
2261 2913
2261 2914
2261 2915
2261 2917
2261 2925
2261 2928
2261 2932
2261 2933
2261 2934
2261 2935
2261 2936
2261 2937
2261 2938
2261 2939
2261 2940
2261 2941
2261 2942
2261 2943
2261 2944
2261 2945
2261 2946
2261 2947
2261 2948
2261 2952
2261 2953
2261 2954
2261 2955
2261 2958
2261 2959
2261 2960
2261 2961
2261 2962
2261 2987
2261 2988
2261 2989
2261 2990
2261 2991
2261 2992
2261 2993
2261 2994
2261 2996
2261 2997
2261 2999
2261 3000
2261 3001
2261 3002
2261 3004
2261 3005
2261 3006
2262 2263
2264 2265
2264 2266
2264 2353
2265 2266
2265 2353
2267 2268
2267 2269
2267 2270
2267 2271
2267 2272
2267 2273
2268 2269
2268 2270
2268 2271
2268 2272
2268 2273
2269 2270
2269 2271
2269 2272
2269 2273
2270 2271
2270 2272
2270 2273
2271 2272
2271 2273
2272 2273
2277 2278
2277 2279
2277 2280
2277 2281
2277 2282
2277 2283
2277 2284
2277 2285
2277 2286
2277 2287
2278 2279
2278 2280
2278 2281
2278 2282
2278 2283
2278 2284
2278 2285
2278 2286
2278 2287
2279 2280
2279 2281
2279 2282
2279 2283
2279 2284
2279 2285
2279 2286
2279 2287
2280 2281
2280 2282
2280 2283
2280 2284
2280 2285
2280 2286
2280 2287
2281 2282
2281 2283
2281 2284
2281 2285
2281 2286
2281 2287
2282 2283
2282 2284
2282 2285
2282 2286
2282 2287
2283 2284
2283 2285
2283 2286
2283 2287
2284 2285
2284 2286
2284 2287
2285 2286
2285 2287
2286 2287
2293 2294
2331 2332
2331 2333
2331 2334
2332 2333
2332 2349
2333 2334
2333 2349
2334 2349
2335 2336
2335 2337
2335 2338
2335 2339
2335 2340
2335 2341
2335 2342
2335 2343
2335 2344
2335 2345
2335 2346
2335 2347
2335 2348
2336 2337
2336 2338
2336 2339
2336 2340
2336 2341
2336 2342
2336 2343
2336 2344
2336 2345
2336 2346
2336 2347
2336 2348
2337 2338
2337 2339
2337 2340
2337 2341
2337 2342
2337 2343
2337 2344
2337 2345
2337 2346
2338 2339
2338 2340
2338 2341
2338 2342
2338 2343
2338 2344
2338 2345
2338 2346
2338 2347
2338 2348
2339 2340
2339 2341
2339 2342
2339 2343
2339 2344
2339 2345
2339 2346
2339 2347
2339 2348
2340 2341
2340 2342
2340 2343
2340 2344
2340 2345
2340 2346
2340 2347
2340 2348
2341 2342
2341 2343
2341 2344
2341 2345
2341 2346
2341 2347
2341 2348
2342 2343
2342 2344
2342 2345
2342 2346
2342 2347
2342 2348
2343 2344
2343 2345
2343 2346
2343 2347
2343 2348
2344 2345
2344 2346
2344 2347
2344 2348
2344 2845
2344 2846
2344 2847
2344 2848
2344 2849
2344 2850
2344 2851
2344 2852
2344 2853
2345 2346
2345 2347
2345 2348
2346 2347
2346 2348
2347 2348
2350 2351
2350 2352
2354 2355
2356 2357
2359 2360
2361 2362
2363 2364
2365 2366
2365 2367
2365 2368
2365 2369
2365 2377
2365 2378
2370 2371
2370 2372
2370 2373
2370 2374
2370 2375
2370 2376
2371 2372
2371 2373
2371 2374
2371 2375
2371 2376
2372 2373
2372 2374
2372 2375
2372 2376
2373 2374
2373 2375
2373 2376
2374 2375
2374 2376
2375 2376
2379 2380
2379 2381
2391 2392
2391 2393
2392 2393
2394 2395
2394 2396
2395 2396
2397 2398
2397 2401
2397 3175
2398 2401
2399 2400
2402 2403
2402 2404
2402 2405
2402 2406
2403 2404
2403 2405
2403 2406
2404 2405
2404 2406
2405 2406
2407 2408
2409 2410
2411 2413
2411 2417
2411 2418
2413 2417
2413 2418
2413 2424
2414 2415
2414 2416
2415 2416
2417 2418
2417 2424
2418 2424
2419 2420
2419 2421
2419 2422
2420 2421
2420 2422
2421 2422
2425 2427
2425 2428
2425 2429
2425 2465
2426 2430
2426 2431
2426 2432
2427 2428
2427 2429
2428 2429
2428 2465
2429 2465
2430 2431
2430 2432
2431 2432
2434 2435
2434 2436
2434 2437
2434 2439
2434 2440
2434 2442
2434 2444
2434 2445
2434 2466
2435 2436
2435 2437
2435 2438
2435 2439
2435 2440
2435 2441
2435 2442
2435 2443
2435 2444
2435 2445
2436 2439
2436 2443
2436 2466
2437 2438
2437 2439
2437 2441
2437 2444
2437 2466
2439 2440
2439 2442
2439 2443
2439 2444
2439 2445
2439 2466
2440 2441
2440 2466
2442 2444
2442 2466
2443 2444
2443 2445
2444 2466
2445 2466
2446 2447
2446 2448
2446 2449
2446 2450
2446 2451
2446 2452
2446 2453
2446 2454
2447 2448
2447 2449
2447 2450
2447 2451
2447 2452
2447 2453
2447 2454
2447 2863
2447 2864
2447 2865
2447 2866
2447 2867
2447 2868
2447 2869
2447 2870
2447 2871
2447 2872
2447 2873
2447 2874
2447 2875
2447 2876
2448 2449
2448 2450
2448 2451
2448 2452
2448 2453
2448 2454
2448 2863
2448 2864
2448 2865
2448 2866
2448 2867
2448 2868
2448 2869
2448 2870
2448 2871
2448 2872
2448 2873
2448 2874
2448 2875
2448 2876
2449 2450
2449 2451
2449 2453
2450 2451
2450 2452
2450 2454
2451 2452
2451 2453
2451 2454
2452 2453
2453 2454
2455 2456
2455 2457
2455 2458
2455 2459
2456 2457
2456 2458
2456 2459
2456 2463
2456 2464
2457 2458
2457 2459
2457 2463
2457 2464
2458 2459
2458 2463
2458 2464
2459 2463
2459 2464
2460 2461
2461 2462
2467 2468
2467 2469
2467 2470
2467 2471
2468 2469
2468 2470
2468 2471
2469 2470
2469 2471
2470 2471
2472 2473
2472 2474
2472 2475
2472 2477
2472 2478
2472 2479
2472 2480
2472 2481
2472 2482
2472 2483
2472 2484
2472 2485
2473 2474
2473 2475
2473 2476
2474 2476
2474 2477
2474 2478
2474 2479
2474 2480
2474 2481
2474 2482
2474 2483
2474 2484
2474 2485
2475 2476
2475 2477
2475 2478
2475 2479
2475 2480
2475 2481
2475 2482
2475 2483
2475 2484
2475 2485
2476 2477
2476 2478
2476 2479
2476 2480
2476 2481
2476 2482
2476 2483
2476 2484
2476 2485
2486 2487
2486 2488
2489 2490
2489 2491
2489 2492
2489 2493
2489 2494
2489 2495
2489 2510
2489 2548
2490 2491
2490 2492
2490 2493
2490 2494
2490 2495
2490 2510
2490 2548
2491 2492
2491 2493
2491 2494
2491 2495
2491 2510
2491 2511
2491 2512
2491 2513
2491 2514
2491 2517
2491 2518
2492 2493
2492 2511
2492 2512
2492 2513
2492 2514
2492 2517
2492 2518
2492 2548
2493 2494
2493 2495
2493 2510
2493 2511
2493 2512
2493 2513
2493 2514
2493 2517
2493 2518
2494 2511
2494 2512
2494 2513
2494 2514
2494 2517
2494 2518
2494 2548
2495 2511
2495 2512
2495 2513
2495 2514
2495 2517
2495 2518
2495 2548
2496 2497
2498 2499
2498 2500
2498 2501
2498 2502
2498 2503
2498 2504
2498 2505
2498 2506
2498 2507
2498 2508
2498 2509
2499 2500
2499 2501
2499 2502
2499 2503
2499 2504
2499 2505
2499 2506
2499 2507
2499 2508
2499 2509
2500 2501
2500 2502
2500 2503
2500 2504
2500 2505
2500 2506
2500 2507
2500 2508
2500 2509
2501 2502
2501 2503
2501 2504
2501 2505
2501 2506
2501 2507
2501 2508
2501 2509
2502 2503
2502 2504
2502 2505
2502 2506
2502 2507
2502 2508
2502 2509
2503 2504
2503 2505
2503 2506
2503 2507
2503 2508
2503 2509
2504 2505
2505 2506
2507 2508
2507 2509
2508 2509
2510 2511
2510 2512
2510 2513
2510 2514
2510 2517
2510 2518
2510 2548
2511 2512
2511 2548
2512 2548
2513 2514
2513 2548
2514 2548
2515 2516
2517 2518
2517 2548
2518 2548
2519 2520
2519 2531
2520 2531
2521 2522
2521 2523
2521 2524
2521 2525
2521 2614
2521 2615
2521 2616
2521 2617
2521 2618
2522 2523
2522 2524
2522 2525
2523 2524
2523 2525
2524 2525
2524 2614
2524 2615
2524 2616
2524 2617
2524 2618
2526 2527
2532 2533
2532 2534
2533 2534
2535 2536
2535 2765
2535 2794
2535 2804
2536 2765
2536 2794
2537 2538
2537 2542
2537 2543
2538 2544
2539 2781
2540 2541
2541 2608
2542 2544
2543 2544
2546 2547
2549 2550
2551 2552
2551 2553
2551 2554
2551 2555
2551 2556
2552 2553
2553 2554
2553 2555
2553 2556
2557 2558
2560 2561
2560 3488
2564 2565
2566 2646
2566 2764
2566 2765
2566 2766
2566 2767
2567 2568
2567 2569
2568 2569
2572 2573
2572 2587
2572 2588
2574 2575
2574 2576
2574 2577
2574 2619
2574 2620
2576 2577
2576 2621
2579 2580
2579 2581
2580 2581
2580 2582
2581 2582
2584 2585
2584 2586
2585 2586
2590 2591
2592 2593
2596 2597
2596 2598
2596 2599
2596 2600
2596 2601
2596 2602
2596 2603
2596 2604
2596 2605
2596 2606
2596 2607
2597 2598
2597 2599
2597 2600
2597 2601
2597 2602
2597 2603
2597 2604
2597 2605
2597 2606
2597 2607
2598 2599
2598 2600
2598 2601
2598 2602
2598 2603
2598 2604
2598 2605
2598 2606
2598 2607
2599 2600
2599 2601
2599 2602
2599 2603
2599 2604
2599 2605
2599 2606
2599 2607
2600 2601
2600 2602
2600 2603
2600 2604
2600 2605
2600 2606
2600 2607
2601 2602
2601 2603
2601 2604
2601 2605
2601 2606
2601 2607
2602 2603
2602 2604
2602 2605
2602 2606
2602 2607
2603 2604
2603 2605
2603 2606
2603 2607
2604 2605
2604 2606
2604 2607
2605 2606
2605 2607
2606 2607
2609 2610
2609 2611
2609 2612
2610 2611
2610 2612
2611 2612
2614 2615
2615 2616
2617 2618
2620 2621
2620 2626
2621 2625
2622 2623
2622 2624
2623 2624
2623 2629
2623 2630
2623 2631
2624 2629
2627 2628
2629 2630
2632 2633
2634 2894
2634 2910
2634 2913
2634 2914
2634 2915
2634 2917
2634 2925
2634 2928
2634 2932
2634 2940
2634 2943
2634 2945
2634 2947
2634 2948
2634 2954
2634 2955
2634 2960
2634 2961
2634 2962
2634 2996
2634 2997
2634 2999
2634 3000
2634 3001
2634 3002
2634 3004
2636 2637
2638 2639
2638 2640
2639 2640
2640 3415
2640 3416
2641 2642
2641 2643
2641 2644
2644 2723
2644 2724
2644 2725
2644 2726
2644 2727
2644 2728
2644 2774
2644 2775
2644 2781
2645 2646
2645 2647
2645 2765
2645 2778
2646 2647
2646 2766
2647 2765
2648 2649
2648 2776
2648 2777
2650 2651
2652 2653
2652 2654
2652 2655
2656 2657
2658 2659
2658 2660
2659 2660
2660 2661
2662 2663
2664 2665
2664 2666
2664 2667
2664 2668
2664 2669
2664 2670
2665 2666
2665 2667
2665 2668
2665 2669
2665 2670
2666 2667
2666 2668
2666 2669
2666 2670
2667 2668
2667 2669
2667 2670
2668 2669
2668 2670
2669 2670
2671 2672
2671 2673
2671 2674
2672 2673
2672 2674
2673 2674
2675 2676
2675 2677
2675 2678
2676 2677
2677 2678
2679 2680
2679 2681
2679 2684
2680 2681
2680 2684
2680 2685
2681 2685
2682 2683
2683 2747
2683 2786
2684 2685
2686 2747
2686 2784
2687 2688
2689 2690
2689 2691
2692 2693
2692 2694
2693 2694
2695 2696
2697 2698
2697 2718
2699 2700
2699 2701
2699 2702
2699 2703
2704 2705
2704 2706
2705 2706
2708 2709
2710 2711
2710 2712
2710 2854
2710 2855
2710 2856
2710 2857
2710 2858
2710 2918
2711 2712
2713 2714
2715 2716
2715 2717
2715 2719
2715 2720
2716 2717
2716 2840
2716 2841
2717 2719
2717 2720
2717 2840
2717 2841
2721 2722
2721 2805
2723 2724
2723 2725
2723 2726
2723 2727
2723 2728
2723 2775
2724 2725
2724 2726
2724 2727
2724 2728
2724 2774
2724 2775
2725 2726
2725 2727
2725 2728
2725 2774
2725 2775
2726 2727
2726 2728
2726 2774
2726 2781
2727 2728
2727 2774
2727 2775
2727 2963
2727 2964
2728 2774
2728 2775
2729 2730
2729 2731
2730 2731
2730 2732
2730 2733
2730 2734
2730 2735
2730 2736
2730 2737
2730 2738
2730 2739
2730 2740
2730 2741
2730 2742
2730 2743
2730 2744
2730 2745
2730 2746
2731 2732
2731 2733
2731 2734
2731 2735
2731 2736
2731 2737
2731 2738
2731 2739
2731 2740
2731 2741
2731 2742
2731 2743
2731 2744
2731 2745
2731 2746
2747 2748
2747 2749
2747 2750
2747 2751
2747 2773
2747 2784
2747 2786
2747 2795
2748 2749
2749 2750
2749 2751
2749 2795
2752 2753
2752 2754
2753 2754
2755 2756
2755 2757
2755 2758
2756 2757
2756 2758
2756 2779
2756 2780
2757 2758
2757 2761
2757 2762
2757 2770
2757 2771
2757 2772
2757 2779
2757 2780
2757 2788
2757 2789
2759 2760
2761 2762
2761 2763
2762 2763
2764 2765
2765 2778
2765 2794
2765 2796
2765 2797
2766 2767
2767 2768
2767 2769
2768 2769
2770 2771
2770 2772
2774 2775
2774 2781
2775 2781
2779 2780
2782 2783
2782 2784
2782 2785
2782 2786
2782 2787
2782 2793
2783 2784
2784 2785
2784 2793
2786 2787
2786 2793
2788 2789
2790 2791
2790 2792
2790 2802
2790 2803
2791 2792
2794 2796
2794 2797
2796 2797
2798 2799
2798 2800
2798 2801
2799 2800
2799 2801
2802 2803
2806 2807
2806 2808
2806 2809
2806 2810
2807 2808
2807 2809
2808 2810
2809 2810
2812 2813
2814 2815
2814 2816
2814 2817
2814 2818
2815 2816
2815 2817
2815 2818
2816 2817
2816 2818
2819 2820
2819 2821
2820 2821
2822 2823
2824 2825
2824 2826
2824 2827
2824 2828
2825 2826
2825 2827
2825 2828
2825 2885
2826 2885
2827 2885
2831 2832
2831 2833
2831 2834
2831 2835
2831 2836
2831 2837
2831 2838
2831 2839
2832 2833
2832 2834
2832 2835
2832 2836
2832 2837
2832 2838
2832 2839
2833 2834
2833 2835
2833 2836
2833 2837
2833 2838
2833 2839
2834 2835
2834 2836
2834 2837
2834 2838
2834 2839
2835 2836
2835 2837
2835 2838
2835 2839
2836 2837
2836 2838
2836 2839
2837 2838
2837 2839
2838 2839
2842 2843
2842 2844
2843 2844
2845 2846
2845 2847
2845 2848
2845 2849
2845 2850
2845 2851
2846 2847
2846 2848
2846 2849
2846 2850
2846 2851
2847 2848
2847 2849
2847 2850
2847 2851
2848 2849
2848 2850
2848 2851
2849 2850
2849 2851
2850 2851
2850 2852
2850 2853
2851 2852
2851 2853
2852 2853
2854 2855
2854 2856
2854 2857
2854 2858
2855 2856
2855 2857
2855 2858
2855 2918
2856 2857
2856 2858
2856 2918
2856 3235
2856 3325
2856 3326
2856 3327
2856 3328
2856 3329
2856 3330
2856 3331
2856 3332
2856 3333
2856 3334
2856 3335
2856 3336
2856 3337
2856 3338
2856 3339
2856 3340
2856 3341
2856 3342
2856 3343
2856 3344
2856 3345
2856 3346
2856 3347
2856 3348
2857 2858
2857 2886
2857 2887
2857 2888
2857 2890
2857 2891
2857 2892
2857 2893
2857 2894
2857 2904
2857 2905
2857 2906
2857 2909
2857 2910
2857 2911
2857 2913
2857 2914
2857 2915
2857 2916
2857 2918
2857 2919
2857 2920
2857 2921
2857 2922
2857 2923
2857 2924
2857 2925
2857 2928
2857 2932
2857 2933
2857 2934
2857 2935
2857 2936
2857 2937
2857 2939
2857 2940
2857 3235
2857 3325
2857 3326
2857 3327
2857 3328
2857 3329
2857 3330
2857 3331
2857 3332
2857 3333
2857 3334
2857 3335
2857 3336
2857 3337
2857 3338
2857 3339
2857 3340
2857 3341
2857 3342
2857 3343
2857 3344
2857 3345
2857 3346
2857 3347
2857 3348
2858 2918
2858 3235
2858 3325
2858 3326
2858 3327
2858 3328
2858 3329
2858 3330
2858 3331
2858 3332
2858 3333
2858 3334
2858 3335
2858 3336
2858 3337
2858 3338
2858 3339
2858 3340
2858 3341
2858 3342
2858 3343
2858 3344
2858 3345
2858 3346
2858 3347
2858 3348
2859 2860
2861 2862
2863 2864
2863 2865
2863 2866
2863 2867
2863 2868
2863 2869
2863 2870
2863 2871
2863 2872
2863 2873
2863 2874
2863 2875
2863 2876
2864 2865
2864 2866
2864 2867
2864 2868
2864 2869
2864 2870
2864 2871
2864 2872
2864 2873
2864 2874
2864 2875
2864 2876
2865 2866
2865 2867
2865 2868
2865 2869
2865 2870
2865 2871
2865 2872
2865 2873
2865 2874
2865 2875
2865 2876
2866 2867
2866 2868
2866 2869
2866 2870
2866 2871
2866 2872
2866 2873
2866 2874
2866 2875
2866 2876
2867 2868
2867 2869
2867 2870
2867 2871
2867 2872
2867 2873
2867 2874
2867 2875
2867 2876
2868 2869
2868 2870
2868 2871
2868 2872
2868 2873
2868 2874
2868 2875
2868 2876
2869 2870
2869 2871
2869 2872
2869 2873
2869 2874
2869 2875
2869 2876
2870 2871
2870 2872
2870 2873
2870 2874
2870 2875
2870 2876
2871 2872
2871 2873
2871 2874
2871 2875
2871 2876
2872 2873
2872 2874
2872 2875
2872 2876
2873 2874
2873 2875
2873 2876
2874 2875
2874 2876
2875 2876
2877 2878
2877 2879
2877 2883
2877 2884
2878 2879
2878 2883
2879 2884
2880 2881
2880 2882
2881 2882
2883 2884
2886 2887
2886 2888
2886 2889
2886 2890
2886 2891
2886 2892
2886 2893
2886 2894
2886 2904
2886 2905
2886 2906
2886 2909
2886 2910
2886 2911
2886 2913
2886 2914
2886 2915
2886 2916
2886 2919
2886 2920
2886 2921
2886 2922
2886 2923
2886 2924
2886 2925
2886 2928
2886 2932
2886 2933
2886 2934
2886 2935
2886 2936
2886 2937
2886 2939
2886 2940
2887 2888
2887 2889
2887 2890
2887 2891
2887 2892
2887 2893
2887 2894
2887 2904
2887 2905
2887 2906
2887 2909
2887 2910
2887 2911
2887 2913
2887 2914
2887 2915
2887 2916
2887 2919
2887 2920
2887 2921
2887 2922
2887 2923
2887 2924
2887 2925
2887 2928
2887 2932
2887 2933
2887 2934
2887 2935
2887 2936
2887 2937
2887 2939
2887 2940
2888 2889
2888 2890
2888 2891
2888 2892
2888 2893
2888 2894
2888 2904
2888 2905
2888 2906
2888 2909
2888 2910
2888 2911
2888 2913
2888 2914
2888 2915
2888 2916
2888 2919
2888 2920
2888 2921
2888 2922
2888 2923
2888 2924
2888 2925
2888 2928
2888 2932
2888 2933
2888 2934
2888 2935
2888 2936
2888 2937
2888 2939
2888 2940
2889 2890
2889 2891
2889 2892
2889 2893
2889 2894
2890 2891
2890 2892
2890 2893
2890 2894
2890 2904
2890 2905
2890 2906
2890 2909
2890 2910
2890 2911
2890 2913
2890 2914
2890 2915
2890 2916
2890 2919
2890 2920
2890 2921
2890 2922
2890 2923
2890 2924
2890 2925
2890 2928
2890 2932
2890 2933
2890 2934
2890 2935
2890 2936
2890 2937
2890 2939
2890 2940
2891 2892
2891 2893
2891 2894
2891 2904
2891 2905
2891 2906
2891 2909
2891 2910
2891 2911
2891 2913
2891 2914
2891 2915
2891 2916
2891 2919
2891 2920
2891 2921
2891 2922
2891 2923
2891 2924
2891 2925
2891 2928
2891 2932
2891 2933
2891 2934
2891 2935
2891 2936
2891 2937
2891 2939
2891 2940
2892 2893
2892 2894
2892 2904
2892 2905
2892 2906
2892 2909
2892 2910
2892 2911
2892 2913
2892 2914
2892 2915
2892 2916
2892 2919
2892 2920
2892 2921
2892 2922
2892 2923
2892 2924
2892 2925
2892 2928
2892 2932
2892 2933
2892 2934
2892 2935
2892 2936
2892 2937
2892 2939
2892 2940
2893 2894
2893 2904
2893 2905
2893 2906
2893 2909
2893 2910
2893 2911
2893 2913
2893 2914
2893 2915
2893 2916
2893 2919
2893 2920
2893 2921
2893 2922
2893 2923
2893 2924
2893 2925
2893 2928
2893 2932
2893 2933
2893 2934
2893 2935
2893 2936
2893 2937
2893 2939
2893 2940
2894 2904
2894 2905
2894 2906
2894 2909
2894 2910
2894 2911
2894 2913
2894 2914
2894 2915
2894 2916
2894 2917
2894 2919
2894 2920
2894 2921
2894 2922
2894 2923
2894 2924
2894 2925
2894 2928
2894 2932
2894 2933
2894 2934
2894 2935
2894 2936
2894 2937
2894 2938
2894 2939
2894 2940
2894 2941
2894 2942
2894 2943
2894 2944
2894 2945
2894 2946
2894 2947
2894 2948
2894 2952
2894 2953
2894 2954
2894 2955
2894 2958
2894 2959
2894 2960
2894 2961
2894 2962
2894 2987
2894 2988
2894 2989
2894 2990
2894 2991
2894 2992
2894 2993
2894 2994
2894 2996
2894 2997
2894 2999
2894 3000
2894 3001
2894 3002
2894 3004
2894 3005
2894 3006
2895 2896
2895 2897
2895 2898
2895 2899
2895 2900
2895 2901
2895 2902
2895 2903
2896 2897
2896 2898
2896 2899
2896 2900
2896 2901
2896 2902
2896 2903
2897 2898
2897 2899
2897 2900
2897 2901
2897 2902
2897 2903
2898 2899
2898 2900
2898 2901
2898 2902
2898 2903
2899 2900
2899 2901
2899 2902
2899 2903
2900 2901
2900 2902
2900 2903
2901 2902
2901 2903
2902 2903
2904 2905
2904 2906
2904 2909
2904 2910
2904 2911
2904 2913
2904 2914
2904 2915
2904 2916
2904 2919
2904 2920
2904 2921
2904 2922
2904 2923
2904 2924
2904 2925
2904 2928
2904 2932
2904 2933
2904 2934
2904 2935
2904 2936
2904 2937
2904 2939
2904 2940
2905 2906
2905 2909
2905 2910
2905 2911
2905 2913
2905 2914
2905 2915
2905 2916
2905 2919
2905 2920
2905 2921
2905 2922
2905 2923
2905 2924
2905 2925
2905 2928
2905 2932
2905 2933
2905 2934
2905 2935
2905 2936
2905 2937
2905 2939
2905 2940
2906 2909
2906 2910
2906 2911
2906 2913
2906 2914
2906 2915
2906 2916
2906 2919
2906 2920
2906 2921
2906 2922
2906 2923
2906 2924
2906 2925
2906 2928
2906 2932
2906 2933
2906 2934
2906 2935
2906 2936
2906 2937
2906 2939
2906 2940
2907 2908
2907 2909
2908 2909
2909 2910
2909 2911
2909 2913
2909 2914
2909 2915
2909 2916
2909 2919
2909 2920
2909 2921
2909 2922
2909 2923
2909 2924
2909 2925
2909 2928
2909 2932
2909 2933
2909 2934
2909 2935
2909 2936
2909 2937
2909 2939
2909 2940
2910 2911
2910 2912
2910 2913
2910 2914
2910 2915
2910 2916
2910 2917
2910 2919
2910 2920
2910 2921
2910 2922
2910 2923
2910 2924
2910 2925
2910 2928
2910 2932
2910 2933
2910 2934
2910 2935
2910 2936
2910 2937
2910 2938
2910 2939
2910 2940
2910 2941
2910 2942
2910 2943
2910 2944
2910 2945
2910 2946
2910 2947
2910 2948
2910 2952
2910 2953
2910 2954
2910 2955
2910 2958
2910 2959
2910 2960
2910 2961
2910 2962
2910 2987
2910 2988
2910 2989
2910 2990
2910 2991
2910 2992
2910 2993
2910 2994
2910 2996
2910 2999
2910 3000
2910 3001
2910 3002
2910 3004
2911 2912
2911 2913
2911 2914
2911 2915
2911 2916
2911 2917
2911 2919
2911 2920
2911 2921
2911 2922
2911 2923
2911 2924
2911 2925
2911 2928
2911 2932
2911 2933
2911 2934
2911 2935
2911 2936
2911 2937
2911 2939
2911 2940
2912 2913
2912 2914
2912 2915
2912 2916
2912 2917
2913 2914
2913 2915
2913 2916
2913 2917
2913 2919
2913 2920
2913 2921
2913 2922
2913 2923
2913 2924
2913 2925
2913 2928
2913 2932
2913 2933
2913 2934
2913 2935
2913 2936
2913 2937
2913 2938
2913 2939
2913 2940
2913 2941
2913 2942
2913 2943
2913 2944
2913 2945
2913 2946
2913 2947
2913 2948
2913 2952
2913 2953
2913 2954
2913 2955
2913 2958
2913 2959
2913 2960
2913 2961
2913 2962
2913 2987
2913 2988
2913 2989
2913 2990
2913 2991
2913 2992
2913 2993
2913 2994
2913 2996
2913 2997
2913 2999
2913 3000
2913 3001
2913 3002
2913 3004
2913 3005
2913 3006
2914 2915
2914 2916
2914 2917
2914 2919
2914 2920
2914 2921
2914 2922
2914 2923
2914 2924
2914 2925
2914 2928
2914 2932
2914 2933
2914 2934
2914 2935
2914 2936
2914 2937
2914 2938
2914 2939
2914 2940
2914 2941
2914 2942
2914 2943
2914 2944
2914 2945
2914 2946
2914 2947
2914 2948
2914 2952
2914 2953
2914 2954
2914 2955
2914 2958
2914 2959
2914 2960
2914 2961
2914 2962
2914 2987
2914 2988
2914 2989
2914 2990
2914 2991
2914 2992
2914 2993
2914 2994
2914 2996
2914 2997
2914 2999
2914 3000
2914 3001
2914 3002
2914 3004
2914 3005
2914 3006
2915 2916
2915 2917
2915 2919
2915 2920
2915 2921
2915 2922
2915 2923
2915 2924
2915 2925
2915 2928
2915 2932
2915 2933
2915 2934
2915 2935
2915 2936
2915 2937
2915 2938
2915 2939
2915 2940
2915 2941
2915 2942
2915 2943
2915 2944
2915 2945
2915 2946
2915 2947
2915 2948
2915 2952
2915 2953
2915 2954
2915 2955
2915 2958
2915 2959
2915 2960
2915 2961
2915 2962
2915 2987
2915 2988
2915 2989
2915 2990
2915 2991
2915 2992
2915 2993
2915 2994
2915 2996
2915 2997
2915 2999
2915 3000
2915 3001
2915 3002
2915 3004
2915 3005
2915 3006
2916 2917
2916 2919
2916 2920
2916 2921
2916 2922
2916 2923
2916 2924
2916 2925
2916 2928
2916 2932
2916 2933
2916 2934
2916 2935
2916 2936
2916 2937
2916 2939
2916 2940
2917 2925
2917 2928
2917 2932
2917 2933
2917 2934
2917 2935
2917 2936
2917 2937
2917 2938
2917 2939
2917 2940
2917 2941
2917 2942
2917 2943
2917 2944
2917 2945
2917 2946
2917 2947
2917 2948
2917 2952
2917 2953
2917 2954
2917 2955
2917 2958
2917 2959
2917 2960
2917 2961
2917 2962
2917 2987
2917 2988
2917 2989
2917 2990
2917 2991
2917 2992
2917 2993
2917 2994
2917 2996
2917 2997
2917 2999
2917 3000
2917 3001
2917 3002
2917 3004
2917 3005
2917 3006
2918 3235
2918 3325
2918 3326
2918 3327
2918 3328
2918 3329
2918 3330
2918 3331
2918 3332
2918 3333
2918 3334
2918 3335
2918 3336
2918 3337
2918 3338
2918 3339
2918 3340
2918 3341
2918 3342
2918 3343
2918 3344
2918 3345
2918 3346
2918 3347
2918 3348
2919 2920
2919 2921
2919 2922
2919 2923
2919 2924
2919 2925
2919 2928
2919 2932
2919 2933
2919 2934
2919 2935
2919 2936
2919 2937
2919 2939
2919 2940
2920 2921
2920 2922
2920 2923
2920 2924
2920 2925
2920 2928
2920 2932
2920 2933
2920 2934
2920 2935
2920 2936
2920 2937
2920 2939
2920 2940
2921 2922
2921 2923
2921 2924
2921 2925
2921 2928
2921 2932
2921 2933
2921 2934
2921 2935
2921 2936
2921 2937
2921 2939
2921 2940
2922 2923
2922 2924
2922 2925
2922 2928
2922 2932
2922 2933
2922 2934
2922 2935
2922 2936
2922 2937
2922 2939
2922 2940
2923 2924
2923 2925
2923 2928
2923 2932
2923 2933
2923 2934
2923 2935
2923 2936
2923 2937
2923 2939
2923 2940
2924 2925
2924 2928
2924 2932
2924 2933
2924 2934
2924 2935
2924 2936
2924 2937
2924 2939
2924 2940
2925 2926
2925 2927
2925 2928
2925 2929
2925 2930
2925 2931
2925 2932
2925 2933
2925 2934
2925 2935
2925 2936
2925 2937
2925 2938
2925 2939
2925 2940
2925 2941
2925 2942
2925 2943
2925 2944
2925 2945
2925 2946
2925 2947
2925 2948
2925 2952
2925 2953
2925 2954
2925 2955
2925 2958
2925 2959
2925 2960
2925 2961
2925 2962
2925 2987
2925 2988
2925 2989
2925 2990
2925 2991
2925 2992
2925 2993
2925 2994
2925 2996
2925 2997
2925 2999
2925 3000
2925 3001
2925 3002
2925 3004
2925 3005
2925 3006
2926 2927
2926 2928
2926 2929
2926 2930
2926 2931
2926 2932
2926 2933
2926 2934
2926 2935
2926 2936
2926 2937
2926 2938
2926 2939
2926 2940
2927 2928
2927 2929
2927 2930
2927 2931
2927 2932
2927 2933
2927 2934
2927 2935
2927 2936
2927 2937
2927 2938
2927 2939
2927 2940
2928 2929
2928 2930
2928 2931
2928 2932
2928 2933
2928 2934
2928 2935
2928 2936
2928 2937
2928 2938
2928 2939
2928 2940
2928 2941
2928 2942
2928 2943
2928 2944
2928 2945
2928 2946
2928 2947
2928 2948
2928 2952
2928 2953
2928 2954
2928 2955
2928 2958
2928 2959
2928 2960
2928 2961
2928 2962
2928 2987
2928 2988
2928 2989
2928 2990
2928 2991
2928 2992
2928 2993
2928 2994
2928 2996
2928 2997
2928 2999
2928 3000
2928 3001
2928 3002
2928 3004
2928 3005
2928 3006
2928 3381
2928 3382
2929 2930
2929 2931
2929 2932
2929 2933
2929 2934
2929 2935
2929 2936
2929 2937
2929 2938
2929 2939
2929 2940
2930 2931
2930 2932
2930 2933
2930 2934
2930 2935
2930 2936
2930 2937
2930 2938
2930 2939
2930 2940
2931 2932
2931 2933
2931 2934
2931 2935
2931 2936
2931 2937
2931 2938
2931 2939
2931 2940
2932 2933
2932 2934
2932 2935
2932 2936
2932 2937
2932 2938
2932 2939
2932 2940
2932 2941
2932 2942
2932 2943
2932 2944
2932 2945
2932 2946
2932 2947
2932 2948
2932 2952
2932 2953
2932 2954
2932 2955
2932 2958
2932 2959
2932 2960
2932 2961
2932 2962
2932 2987
2932 2988
2932 2989
2932 2990
2932 2991
2932 2992
2932 2993
2932 2994
2932 2996
2932 2997
2932 2999
2932 3000
2932 3001
2932 3002
2932 3004
2932 3005
2932 3006
2932 3381
2932 3382
2933 2934
2933 2935
2933 2936
2933 2937
2933 2938
2933 2939
2933 2940
2933 2941
2933 2942
2933 2943
2933 2944
2933 2945
2933 2946
2933 2947
2933 2948
2933 2952
2933 2953
2933 2954
2933 2955
2933 2958
2933 2959
2933 2960
2933 2961
2933 2962
2933 3381
2933 3382
2934 2935
2934 2936
2934 2937
2934 2938
2934 2939
2934 2940
2934 2941
2934 2942
2934 2943
2934 2944
2934 2945
2934 2946
2934 2947
2934 2948
2934 2952
2934 2953
2934 2954
2934 2955
2934 2958
2934 2959
2934 2960
2934 2961
2934 2962
2934 3381
2934 3382
2935 2936
2935 2937
2935 2938
2935 2939
2935 2940
2935 2941
2935 2942
2935 2943
2935 2944
2935 2945
2935 2946
2935 2947
2935 2948
2935 2952
2935 2953
2935 2954
2935 2955
2935 2958
2935 2959
2935 2960
2935 2961
2935 2962
2935 3381
2935 3382
2936 2937
2936 2938
2936 2939
2936 2940
2936 2941
2936 2942
2936 2943
2936 2944
2936 2945
2936 2946
2936 2947
2936 2948
2936 2952
2936 2953
2936 2954
2936 2955
2936 2958
2936 2959
2936 2960
2936 2961
2936 3381
2936 3382
2937 2938
2937 2939
2937 2940
2937 2941
2937 2942
2937 2943
2937 2944
2937 2945
2937 2946
2937 2947
2937 2948
2937 2952
2937 2953
2937 2954
2937 2955
2937 2958
2937 2959
2937 2960
2937 2961
2937 3381
2937 3382
2938 2939
2938 2940
2938 2941
2938 2942
2938 2943
2938 2944
2938 2945
2938 2946
2938 2947
2938 2948
2938 2952
2938 2953
2938 2954
2938 2955
2938 2958
2938 2959
2938 2960
2938 2961
2938 2962
2938 3381
2938 3382
2939 2940
2939 2941
2939 2942
2939 2943
2939 2944
2939 2945
2939 2946
2939 2947
2939 2948
2939 2952
2939 2953
2939 2954
2939 2955
2939 3381
2939 3382
2940 2941
2940 2942
2940 2943
2940 2944
2940 2945
2940 2946
2940 2947
2940 2948
2940 2952
2940 2953
2940 2954
2940 2955
2940 2958
2940 2959
2940 2960
2940 2961
2940 2962
2940 2987
2940 2988
2940 2989
2940 2990
2940 2991
2940 2992
2940 2993
2940 2994
2940 2996
2940 2997
2940 2999
2940 3000
2940 3001
2940 3002
2940 3004
2940 3005
2940 3006
2940 3381
2940 3382
2941 2942
2941 2943
2941 2944
2941 2945
2941 2946
2941 2947
2941 2948
2941 2952
2941 2953
2941 2954
2941 2955
2941 3381
2941 3382
2942 2943
2942 2944
2942 2945
2942 2946
2942 2947
2942 2948
2943 2944
2943 2945
2943 2946
2943 2947
2943 2948
2943 2952
2943 2953
2943 2954
2943 2955
2943 2958
2943 2959
2943 2960
2943 2961
2943 2962
2943 2987
2943 2988
2943 2989
2943 2990
2943 2991
2943 2992
2943 2993
2943 2994
2943 2996
2943 2997
2943 2999
2943 3000
2943 3001
2943 3002
2943 3004
2943 3005
2943 3006
2944 2945
2944 2946
2944 2947
2944 2948
2944 2952
2944 2953
2944 2954
2944 2955
2944 2958
2944 2959
2944 2960
2944 2961
2945 2946
2945 2947
2945 2948
2945 2949
2945 2952
2945 2953
2945 2954
2945 2955
2945 2958
2945 2959
2945 2960
2945 2961
2945 2962
2945 2987
2945 2988
2945 2989
2945 2990
2945 2991
2945 2992
2945 2993
2945 2994
2945 2996
2945 2997
2945 2999
2945 3000
2945 3001
2945 3002
2945 3004
2945 3005
2945 3006
2945 3153
2945 3432
2945 3433
2946 2947
2946 2948
2946 2952
2946 2953
2946 2954
2946 2955
2947 2948
2947 2952
2947 2953
2947 2954
2947 2955
2947 2958
2947 2959
2947 2960
2947 2961
2947 2962
2947 2987
2947 2988
2947 2989
2947 2990
2947 2991
2947 2992
2947 2993
2947 2994
2947 2996
2947 2997
2947 2999
2947 3000
2947 3001
2947 3002
2947 3004
2947 3005
2947 3006
2948 2952
2948 2953
2948 2954
2948 2955
2948 2958
2948 2959
2948 2960
2948 2961
2948 2962
2948 2987
2948 2988
2948 2989
2948 2990
2948 2991
2948 2992
2948 2993
2948 2994
2948 2996
2948 2997
2948 2999
2948 3000
2948 3001
2948 3002
2948 3004
2948 3005
2948 3006
2949 2950
2949 2951
2949 3153
2949 3432
2949 3433
2950 2951
2952 2953
2952 2954
2952 2955
2952 2958
2952 2959
2952 2960
2952 2961
2952 2962
2953 2954
2953 2955
2954 2955
2954 2958
2954 2959
2954 2960
2954 2961
2954 2962
2954 2987
2954 2988
2954 2989
2954 2990
2954 2991
2954 2992
2954 2993
2954 2994
2954 2996
2954 2997
2954 2999
2954 3000
2954 3001
2954 3002
2954 3004
2955 2958
2955 2959
2955 2960
2955 2961
2955 2962
2955 2987
2955 2988
2955 2989
2955 2990
2955 2991
2955 2992
2955 2993
2955 2994
2955 2996
2955 2997
2955 2999
2955 3000
2955 3001
2955 3002
2955 3004
2956 2957
2956 2986
2956 2995
2957 2998
2957 3003
2958 2959
2958 2960
2958 2961
2958 2962
2959 2960
2959 2961
2959 2962
2960 2961
2960 2962
2960 2987
2960 2988
2960 2989
2960 2990
2960 2991
2960 2992
2960 2993
2960 2994
2960 2996
2960 2997
2960 2999
2960 3000
2960 3001
2960 3002
2960 3004
2960 3005
2960 3006
2961 2962
2961 2987
2961 2988
2961 2989
2961 2990
2961 2991
2961 2992
2961 2993
2961 2994
2961 2996
2961 2997
2961 2999
2961 3000
2961 3001
2961 3002
2961 3004
2961 3005
2961 3006
2962 2987
2962 2988
2962 2989
2962 2990
2962 2991
2962 2992
2962 2993
2962 2994
2962 2996
2962 2997
2962 2999
2962 3000
2962 3001
2962 3002
2962 3004
2962 3005
2962 3006
2963 2964
2965 2966
2965 2967
2965 2968
2965 2969
2965 2970
2965 2971
2965 2972
2966 2967
2966 2968
2966 2969
2966 2970
2966 2971
2966 2972
2967 2968
2967 2969
2967 2970
2967 2971
2967 2972
2968 2969
2968 2970
2968 2971
2968 2972
2969 2970
2969 2971
2969 2972
2970 2971
2970 2972
2971 2972
2973 2974
2973 2975
2973 2976
2973 2977
2974 2975
2974 2976
2974 2977
2975 2976
2975 2977
2976 2977
2978 2979
2978 2980
2979 2980
2981 2982
2981 2983
2981 2984
2981 2985
2982 2983
2982 2984
2982 2985
2983 2984
2983 2985
2984 2985
2986 2998
2986 3003
2987 2988
2987 2989
2987 2990
2987 2991
2987 2992
2987 2993
2987 2994
2988 2989
2988 2990
2988 2991
2988 2992
2988 2993
2988 2994
2989 2990
2989 2991
2989 2992
2989 2993
2989 2994
2990 2991
2990 2992
2990 2993
2990 2994
2991 2992
2991 2993
2991 2994
2992 2993
2992 2994
2993 2994
2995 2998
2995 3003
2996 2997
2996 2999
2996 3000
2996 3001
2996 3002
2996 3004
2997 2999
2997 3000
2997 3001
2997 3002
2999 3000
2999 3001
2999 3002
2999 3004
3000 3001
3000 3002
3000 3004
3001 3002
3001 3004
3002 3004
3005 3006
3008 3009
3010 3011
3010 3012
3010 3013
3010 3014
3010 3015
3011 3012
3011 3013
3011 3014
3011 3015
3012 3013
3012 3014
3012 3015
3013 3014
3013 3015
3014 3015
3016 3017
3016 3018
3017 3018
3019 3666
3019 3667
3021 3022
3021 3023
3021 3024
3027 3028
3032 3033
3035 3036
3035 3037
3035 3039
3035 3040
3036 3038
3037 3038
3038 3041
3038 3047
3038 3048
3042 3043
3042 3044
3042 3045
3043 3046
3045 3046
3050 3051
3050 3052
3050 3053
3051 3052
3051 3053
3052 3053
3054 3055
3056 3057
3058 3059
3058 3060
3059 3060
3062 3063
3062 3064
3063 3064
3067 3068
3067 3076
3069 3070
3069 3589
3070 3242
3070 3588
3070 3590
3070 3591
3071 3072
3071 3073
3072 3073
3074 3075
3079 3080
3080 3628
3080 3629
3082 3083
3082 3194
3082 3195
3082 3196
3084 3085
3084 3086
3084 3087
3085 3086
3085 3087
3086 3087
3088 3089
3089 3090
3089 3622
3093 3094
3093 3095
3093 3096
3093 3097
3093 3098
3093 3101
3093 3102
3093 3105
3093 3106
3093 3161
3094 3095
3094 3096
3094 3097
3094 3098
3094 3101
3094 3102
3094 3105
3094 3106
3094 3161
3095 3096
3095 3097
3095 3098
3095 3102
3096 3097
3096 3101
3096 3102
3096 3105
3096 3106
3096 3161
3097 3098
3097 3101
3097 3161
3098 3101
3098 3102
3098 3105
3098 3106
3098 3161
3099 3100
3099 3620
3099 3621
3101 3102
3102 3161
3103 3104
3105 3106
3107 3108
3107 3109
3107 3110
3107 3111
3107 3112
3107 3113
3107 3114
3107 3115
3107 3116
3107 3117
3107 3118
3107 3119
3107 3120
3107 3121
3108 3109
3108 3110
3108 3111
3108 3112
3108 3113
3108 3114
3108 3115
3108 3116
3108 3117
3108 3118
3108 3119
3108 3120
3108 3121
3109 3110
3109 3111
3109 3112
3109 3113
3109 3114
3109 3115
3109 3116
3109 3117
3109 3118
3109 3119
3109 3120
3109 3121
3110 3111
3110 3112
3110 3113
3110 3114
3110 3115
3110 3116
3110 3117
3110 3118
3110 3119
3110 3120
3110 3121
3111 3112
3111 3113
3111 3114
3111 3115
3111 3116
3111 3117
3111 3118
3111 3119
3111 3120
3111 3121
3112 3113
3112 3114
3112 3115
3112 3116
3112 3117
3112 3118
3112 3119
3112 3120
3112 3121
3113 3114
3113 3115
3113 3116
3113 3117
3113 3118
3113 3119
3113 3120
3113 3121
3114 3115
3114 3116
3114 3117
3114 3118
3114 3119
3114 3120
3114 3121
3115 3116
3115 3117
3115 3118
3115 3119
3115 3120
3115 3121
3116 3117
3116 3118
3116 3119
3116 3120
3116 3121
3117 3118
3117 3119
3117 3120
3117 3121
3118 3119
3118 3120
3118 3121
3119 3120
3119 3121
3120 3121
3122 3123
3122 3124
3122 3125
3122 3129
3122 3130
3122 3131
3122 3132
3122 3133
3122 3134
3122 3135
3122 3136
3122 3137
3122 3138
3122 3144
3123 3124
3123 3125
3123 3129
3123 3130
3123 3131
3123 3132
3123 3133
3123 3134
3123 3135
3123 3136
3123 3137
3123 3138
3123 3144
3124 3125
3124 3129
3124 3130
3124 3131
3124 3132
3124 3133
3124 3134
3124 3135
3124 3136
3124 3137
3124 3138
3124 3144
3126 3127
3126 3128
3127 3128
3140 3141
3145 3146
3145 3147
3145 3148
3145 3149
3146 3147
3146 3148
3146 3149
3147 3148
3147 3149
3148 3149
3150 3151
3150 3152
3150 3153
3151 3152
3151 3153
3153 3432
3153 3433
3154 3155
3157 3158
3157 3159
3157 3160
3158 3159
3158 3160
3159 3160
3163 3164
3163 3165
3163 3166
3164 3165
3165 3166
3167 3168
3167 3169
3167 3170
3168 3169
3168 3170
3169 3170
3172 3173
3172 3174
3173 3174
3176 3177
3176 3178
3176 3179
3177 3178
3177 3179
3177 3180
3177 3182
3178 3179
3178 3180
3178 3181
3178 3182
3179 3180
3179 3182
3180 3182
3181 3182
3183 3184
3183 3185
3184 3185
3186 3187
3186 3188
3186 3189
3186 3190
3186 3191
3186 3192
3186 3193
3187 3188
3187 3189
3187 3190
3187 3191
3187 3192
3187 3193
3188 3189
3188 3190
3188 3191
3188 3192
3188 3193
3189 3190
3189 3191
3189 3192
3189 3193
3190 3191
3190 3192
3190 3193
3191 3192
3191 3193
3192 3193
3194 3195
3194 3196
3195 3196
3199 3200
3199 3201
3199 3202
3199 3203
3199 3204
3200 3201
3200 3202
3200 3203
3200 3204
3201 3202
3201 3203
3201 3204
3202 3203
3202 3204
3203 3204
3205 3206
3207 3208
3207 3209
3207 3210
3207 3211
3207 3212
3208 3209
3208 3210
3208 3211
3208 3212
3209 3210
3209 3211
3209 3212
3210 3211
3210 3212
3211 3212
3212 3495
3212 3496
3214 3215
3214 3216
3214 3217
3214 3218
3214 3219
3215 3216
3215 3217
3215 3218
3215 3219
3216 3217
3216 3218
3216 3219
3217 3218
3217 3219
3218 3219
3222 3223
3224 3225
3224 3226
3224 3227
3224 3228
3224 3229
3224 3230
3225 3226
3225 3227
3225 3228
3225 3229
3225 3230
3226 3227
3226 3228
3226 3229
3226 3230
3227 3228
3227 3229
3227 3230
3228 3229
3228 3230
3229 3230
3231 3232
3231 3233
3235 3325
3235 3326
3235 3327
3235 3328
3235 3329
3235 3330
3235 3331
3235 3332
3235 3333
3235 3334
3235 3335
3235 3336
3235 3337
3235 3338
3235 3339
3235 3340
3235 3341
3235 3342
3235 3343
3235 3344
3235 3345
3235 3346
3235 3347
3235 3348
3236 3258
3236 3259
3243 3244
3243 3245
3243 3246
3243 3247
3243 3248
3243 3249
3243 3250
3243 3251
3243 3252
3243 3253
3244 3245
3244 3246
3244 3247
3244 3248
3244 3249
3244 3250
3244 3251
3244 3252
3244 3253
3244 3263
3244 3264
3244 3272
3244 3276
3244 3277
3245 3246
3245 3247
3245 3248
3245 3249
3245 3250
3245 3251
3245 3252
3245 3253
3245 3263
3245 3264
3245 3271
3245 3272
3245 3273
3245 3274
3245 3275
3245 3276
3245 3277
3246 3247
3246 3248
3246 3249
3246 3250
3246 3251
3246 3252
3246 3253
3246 3263
3246 3264
3246 3272
3246 3276
3246 3277
3247 3248
3247 3249
3247 3250
3247 3251
3247 3252
3247 3253
3247 3263
3247 3264
3247 3271
3247 3272
3247 3273
3247 3274
3247 3275
3247 3276
3247 3277
3248 3249
3248 3250
3248 3251
3248 3252
3248 3253
3248 3263
3248 3264
3248 3271
3248 3272
3248 3273
3248 3274
3248 3275
3248 3276
3248 3277
3249 3250
3249 3251
3249 3252
3249 3253
3249 3263
3249 3264
3249 3272
3249 3276
3249 3277
3250 3251
3250 3252
3250 3253
3250 3263
3250 3264
3250 3272
3250 3276
3250 3277
3251 3252
3251 3253
3251 3263
3251 3264
3251 3272
3251 3276
3251 3277
3252 3253
3252 3263
3252 3264
3252 3272
3252 3276
3252 3277
3255 3256
3255 3257
3255 3547
3255 3565
3256 3257
3256 3547
3257 3565
3261 3262
3261 3406
3263 3264
3264 3277
3265 3266
3265 3267
3265 3268
3265 3269
3265 3270
3266 3267
3266 3268
3266 3269
3266 3270
3267 3268
3267 3269
3267 3270
3268 3269
3268 3270
3269 3270
3271 3272
3271 3273
3271 3274
3271 3275
3272 3273
3272 3274
3272 3275
3272 3276
3273 3274
3273 3275
3274 3275
3278 3279
3278 3280
3278 3281
3278 3282
3278 3283
3278 3284
3279 3280
3279 3281
3279 3282
3279 3283
3279 3284
3280 3281
3280 3282
3280 3283
3280 3284
3281 3282
3281 3283
3281 3284
3282 3283
3282 3284
3283 3284
3285 3286
3285 3287
3285 3288
3285 3289
3285 3290
3285 3291
3285 3292
3285 3293
3285 3294
3285 3295
3286 3287
3286 3288
3286 3289
3286 3290
3286 3291
3286 3292
3286 3293
3286 3294
3286 3295
3286 3297
3287 3288
3287 3289
3287 3290
3287 3291
3287 3292
3287 3293
3287 3294
3287 3295
3288 3289
3288 3290
3288 3291
3288 3292
3288 3293
3288 3294
3288 3295
3289 3290
3289 3291
3289 3292
3289 3293
3289 3294
3289 3295
3290 3291
3290 3292
3290 3293
3290 3294
3290 3295
3291 3292
3291 3293
3291 3294
3291 3295
3292 3293
3292 3294
3292 3295
3293 3294
3293 3295
3294 3295
3298 3443
3298 3444
3298 3445
3299 3300
3299 3301
3300 3301
3303 3304
3304 3552
3304 3553
3304 3554
3304 3556
3304 3557
3304 3562
3304 3567
3307 3308
3307 3309
3307 3310
3307 3311
3307 3312
3307 3313
3307 3401
3307 3402
3307 3403
3308 3309
3308 3310
3308 3311
3308 3312
3308 3313
3308 3401
3308 3402
3308 3403
3309 3310
3309 3311
3309 3312
3309 3313
3309 3401
3309 3402
3310 3311
3310 3312
3310 3313
3310 3401
3310 3402
3310 3403
3311 3312
3311 3313
3311 3401
3311 3402
3311 3403
3312 3313
3312 3402
3312 3403
3313 3401
3313 3403
3315 3316
3317 3318
3320 3321
3321 3537
3322 3323
3322 3324
3323 3324
3325 3326
3325 3327
3325 3328
3325 3329
3325 3330
3325 3331
3325 3332
3325 3333
3325 3334
3325 3335
3325 3336
3325 3337
3325 3338
3325 3339
3325 3340
3325 3341
3325 3342
3325 3343
3325 3344
3325 3345
3325 3346
3325 3347
3325 3348
3326 3327
3326 3328
3326 3329
3326 3330
3326 3331
3326 3332
3326 3333
3326 3334
3326 3335
3326 3336
3326 3337
3326 3338
3326 3339
3326 3340
3326 3341
3326 3342
3326 3343
3326 3344
3326 3345
3326 3346
3326 3347
3326 3348
3327 3328
3327 3329
3327 3330
3327 3331
3327 3332
3327 3333
3327 3334
3327 3335
3327 3336
3327 3337
3327 3338
3327 3339
3327 3340
3327 3341
3327 3342
3327 3343
3327 3344
3327 3345
3327 3346
3327 3347
3327 3348
3328 3329
3328 3330
3328 3331
3328 3332
3328 3333
3328 3334
3328 3335
3328 3336
3328 3337
3328 3338
3328 3339
3328 3340
3328 3341
3328 3342
3328 3343
3328 3344
3328 3345
3328 3346
3328 3347
3328 3348
3329 3330
3329 3331
3329 3332
3329 3333
3329 3334
3329 3335
3329 3336
3329 3337
3329 3338
3329 3339
3329 3340
3329 3341
3329 3342
3329 3343
3329 3344
3329 3345
3329 3346
3329 3347
3329 3348
3330 3331
3330 3332
3330 3333
3330 3334
3330 3335
3330 3336
3330 3337
3330 3338
3330 3339
3330 3340
3330 3341
3330 3342
3330 3343
3330 3344
3330 3345
3330 3346
3330 3347
3330 3348
3331 3332
3331 3333
3331 3334
3331 3335
3331 3336
3331 3337
3331 3338
3331 3339
3331 3340
3331 3341
3331 3342
3331 3343
3331 3344
3331 3345
3331 3346
3331 3347
3331 3348
3332 3333
3332 3334
3332 3335
3332 3336
3332 3337
3332 3338
3332 3339
3332 3340
3332 3341
3332 3342
3332 3343
3332 3344
3332 3345
3332 3346
3332 3347
3332 3348
3333 3334
3333 3335
3333 3336
3333 3337
3333 3338
3333 3339
3333 3340
3333 3341
3333 3342
3333 3343
3333 3344
3333 3345
3333 3346
3333 3347
3333 3348
3334 3335
3334 3336
3334 3337
3334 3338
3334 3339
3334 3340
3334 3341
3334 3342
3334 3343
3334 3344
3334 3345
3334 3346
3334 3347
3334 3348
3335 3336
3335 3337
3335 3338
3335 3339
3335 3340
3335 3341
3335 3342
3335 3343
3335 3344
3335 3345
3335 3346
3335 3347
3335 3348
3336 3337
3336 3338
3336 3339
3336 3340
3336 3341
3336 3342
3336 3343
3336 3344
3336 3345
3336 3346
3336 3347
3336 3348
3337 3338
3337 3339
3337 3340
3337 3341
3337 3342
3337 3343
3337 3344
3337 3345
3337 3346
3337 3347
3337 3348
3338 3339
3338 3340
3338 3341
3338 3342
3338 3343
3338 3344
3338 3345
3338 3346
3338 3347
3338 3348
3339 3340
3339 3341
3339 3342
3339 3343
3339 3344
3339 3345
3339 3346
3339 3347
3339 3348
3340 3341
3340 3342
3340 3343
3340 3344
3340 3345
3340 3346
3340 3347
3340 3348
3341 3342
3341 3343
3341 3344
3341 3345
3341 3346
3341 3347
3341 3348
3342 3343
3342 3344
3342 3345
3342 3346
3342 3347
3342 3348
3343 3344
3343 3345
3343 3346
3343 3347
3343 3348
3344 3345
3344 3346
3344 3347
3344 3348
3345 3346
3345 3347
3345 3348
3346 3347
3346 3348
3347 3348
3350 3351
3355 3356
3356 3359
3356 3362
3357 3377
3360 3361
3363 3364
3363 3365
3363 3366
3363 3367
3363 3368
3363 3369
3363 3370
3363 3371
3363 3372
3363 3373
3363 3374
3363 3375
3363 3376
3364 3365
3364 3366
3364 3367
3364 3368
3364 3369
3364 3370
3364 3371
3364 3372
3364 3373
3364 3374
3364 3375
3364 3376
3365 3366
3365 3367
3365 3368
3365 3369
3365 3370
3365 3371
3365 3372
3365 3373
3365 3374
3365 3375
3365 3376
3366 3367
3366 3368
3366 3369
3366 3370
3366 3371
3366 3372
3366 3373
3366 3374
3366 3375
3366 3376
3367 3368
3367 3369
3367 3370
3367 3371
3367 3372
3367 3373
3367 3374
3367 3375
3367 3376
3368 3369
3368 3370
3368 3371
3368 3372
3368 3373
3368 3374
3368 3375
3368 3376
3369 3370
3369 3371
3369 3372
3369 3373
3369 3374
3369 3375
3369 3376
3370 3371
3370 3372
3370 3373
3370 3374
3370 3375
3370 3376
3371 3372
3371 3373
3371 3374
3371 3375
3371 3376
3372 3373
3372 3374
3372 3375
3372 3376
3373 3374
3373 3375
3373 3376
3374 3375
3374 3376
3375 3376
3378 3379
3381 3382
3383 3384
3383 3385
3383 3386
3383 3387
3384 3385
3384 3386
3384 3387
3385 3386
3385 3387
3386 3387
3396 3397
3396 3398
3396 3399
3396 3400
3397 3398
3397 3399
3397 3400
3398 3399
3398 3400
3399 3400
3401 3402
3401 3403
3402 3403
3404 3405
3407 3408
3407 3409
3407 3410
3407 3411
3408 3409
3408 3410
3408 3411
3409 3410
3409 3411
3410 3411
3413 3414
3413 3419
3415 3416
3417 3418
3420 3421
3422 3423
3422 3424
3423 3424
3425 3426
3425 3427
3425 3428
3425 3429
3425 3430
3425 3431
3426 3427
3426 3428
3426 3429
3426 3430
3426 3431
3427 3428
3427 3429
3427 3430
3427 3431
3428 3429
3428 3430
3428 3431
3429 3430
3429 3431
3430 3431
3432 3433
3434 3435
3434 3436
3434 3437
3435 3436
3435 3437
3436 3437
3439 3440
3441 3442
3443 3444
3444 3445
3447 3448
3447 3449
3451 3452
3451 3453
3451 3454
3451 3455
3451 3456
3452 3453
3452 3454
3452 3455
3452 3456
3453 3454
3453 3455
3453 3456
3454 3455
3454 3456
3455 3456
3457 3458
3458 3475
3458 3476
3458 3477
3458 3478
3459 3460
3459 3461
3459 3462
3459 3469
3459 3470
3460 3461
3460 3462
3460 3465
3460 3466
3460 3467
3460 3468
3461 3462
3461 3465
3461 3466
3461 3467
3461 3468
3462 3465
3462 3466
3462 3467
3462 3468
3463 3464
3465 3466
3465 3467
3465 3468
3466 3467
3466 3468
3467 3468
3469 3470
3469 3471
3470 3471
3472 3473
3472 3474
3473 3474
3475 3476
3475 3477
3475 3478
3476 3477
3476 3478
3477 3478
3479 3480
3479 3481
3479 3482
3480 3481
3480 3482
3480 3483
3480 3484
3481 3482
3481 3483
3481 3484
3482 3483
3482 3484
3485 3486
3485 3487
3486 3487
3489 3490
3489 3491
3490 3491
3492 3493
3492 3494
3492 3497
3492 3498
3492 3500
3492 3501
3492 3502
3492 3503
3492 3504
3492 3505
3493 3494
3495 3496
3497 3498
3497 3500
3501 3502
3501 3503
3501 3504
3501 3505
3502 3503
3502 3504
3503 3504
3503 3505
3504 3505
3508 3509
3519 3520
3519 3521
3520 3521
3523 3524
3527 3528
3527 3529
3527 3530
3528 3529
3528 3530
3529 3530
3531 3532
3534 3535
3534 3536
3535 3536
3538 3539
3538 3540
3538 3541
3538 3544
3539 3540
3539 3541
3540 3541
3540 3544
3542 3543
3545 3546
3547 3565
3548 3549
3548 3550
3549 3550
3556 3557
3558 3559
3560 3561
3563 3564
3569 3570
3569 3571
3569 3572
3569 3573
3569 3574
3569 3575
3569 3576
3569 3577
3569 3578
3569 3579
3570 3571
3570 3572
3570 3573
3570 3574
3570 3575
3570 3576
3570 3577
3570 3578
3570 3579
3571 3572
3571 3573
3571 3574
3571 3575
3571 3576
3571 3577
3571 3578
3571 3579
3572 3573
3572 3574
3572 3575
3572 3576
3572 3577
3572 3578
3572 3579
3573 3574
3573 3575
3573 3576
3573 3577
3573 3578
3573 3579
3574 3575
3574 3576
3574 3577
3574 3578
3574 3579
3575 3576
3575 3577
3575 3578
3575 3579
3576 3577
3576 3578
3576 3579
3577 3578
3577 3579
3578 3579
3580 3582
3580 3583
3581 3582
3581 3583
3582 3583
3584 3585
3586 3587
3588 3589
3589 3590
3589 3591
3592 3593
3592 3594
3592 3595
3592 3596
3592 3597
3593 3594
3593 3595
3593 3596
3593 3597
3594 3595
3594 3596
3594 3597
3595 3596
3595 3597
3596 3597
3598 3599
3600 3601
3600 3602
3601 3602
3603 3604
3604 3614
3604 3615
3606 3607
3607 3608
3609 3610
3611 3612
3618 3619
3618 3631
3619 3630
3619 3631
3630 3631
3632 3633
3632 3634
3633 3635
3633 3636
3634 3635
3634 3636
3637 3638
3637 3639
3637 3640
3637 3641
3637 3642
3637 3643
3637 3644
3637 3645
3637 3646
3637 3647
3637 3648
3637 3649
3637 3650
3637 3651
3637 3652
3637 3653
3637 3654
3637 3655
3637 3656
3637 3657
3637 3658
3637 3659
3637 3660
3637 3661
3637 3662
3638 3639
3638 3640
3638 3641
3638 3642
3638 3643
3638 3644
3638 3645
3638 3646
3638 3647
3638 3648
3638 3649
3638 3650
3638 3651
3638 3652
3638 3653
3638 3654
3638 3655
3638 3656
3638 3657
3638 3658
3638 3659
3638 3660
3638 3661
3638 3662
3639 3640
3639 3641
3639 3642
3639 3643
3639 3644
3639 3645
3639 3646
3639 3647
3639 3648
3639 3649
3639 3650
3639 3651
3639 3652
3639 3653
3639 3654
3639 3655
3639 3656
3639 3657
3639 3658
3639 3659
3639 3660
3639 3661
3639 3662
3640 3641
3640 3642
3640 3643
3640 3644
3640 3645
3640 3646
3640 3647
3640 3648
3640 3649
3640 3650
3640 3651
3640 3652
3640 3653
3640 3654
3640 3655
3640 3656
3640 3657
3640 3658
3640 3659
3640 3660
3640 3661
3640 3662
3641 3642
3641 3643
3641 3644
3641 3645
3641 3646
3641 3647
3641 3648
3641 3649
3641 3650
3641 3651
3641 3652
3641 3653
3641 3654
3641 3655
3641 3656
3641 3657
3641 3658
3641 3659
3641 3660
3641 3661
3641 3662
3642 3643
3642 3644
3642 3645
3642 3646
3642 3647
3642 3648
3642 3649
3642 3650
3642 3651
3642 3652
3642 3653
3642 3654
3642 3655
3642 3656
3642 3657
3642 3658
3642 3659
3642 3660
3642 3661
3642 3662
3643 3644
3643 3645
3643 3646
3643 3647
3643 3648
3643 3649
3643 3650
3643 3651
3643 3652
3643 3653
3643 3654
3643 3655
3643 3656
3643 3657
3643 3658
3643 3659
3643 3660
3643 3661
3643 3662
3644 3645
3644 3646
3644 3647
3644 3648
3644 3649
3644 3650
3644 3651
3644 3652
3644 3653
3644 3654
3644 3655
3644 3656
3644 3657
3644 3658
3644 3659
3644 3660
3644 3661
3644 3662
3645 3646
3645 3647
3645 3648
3645 3649
3645 3650
3645 3651
3645 3652
3645 3653
3645 3654
3645 3655
3645 3656
3645 3657
3645 3658
3645 3659
3645 3660
3645 3661
3645 3662
3646 3647
3646 3648
3646 3649
3646 3650
3646 3651
3646 3652
3646 3653
3646 3654
3646 3655
3646 3656
3646 3657
3646 3658
3646 3659
3646 3660
3646 3661
3646 3662
3647 3648
3647 3649
3647 3650
3647 3651
3647 3652
3647 3653
3647 3654
3647 3655
3647 3656
3647 3657
3647 3658
3647 3659
3647 3660
3647 3661
3647 3662
3648 3649
3648 3650
3648 3651
3648 3652
3648 3653
3648 3654
3648 3655
3648 3656
3648 3657
3648 3658
3648 3659
3648 3660
3648 3661
3648 3662
3649 3650
3649 3651
3649 3652
3649 3653
3649 3654
3649 3655
3649 3656
3649 3657
3649 3658
3649 3659
3649 3660
3649 3661
3649 3662
3650 3651
3650 3652
3650 3653
3650 3654
3650 3655
3650 3656
3650 3657
3650 3658
3650 3659
3650 3660
3650 3661
3650 3662
3651 3652
3651 3653
3651 3654
3651 3655
3651 3656
3651 3657
3651 3658
3651 3659
3651 3660
3651 3661
3651 3662
3652 3653
3652 3654
3652 3655
3652 3656
3652 3657
3652 3658
3652 3659
3652 3660
3652 3661
3652 3662
3653 3654
3653 3655
3653 3656
3653 3657
3653 3658
3653 3659
3653 3660
3653 3661
3653 3662
3654 3655
3654 3656
3654 3657
3654 3658
3654 3659
3654 3660
3654 3661
3654 3662
3655 3656
3655 3657
3655 3658
3655 3659
3655 3660
3655 3661
3655 3662
3656 3657
3656 3658
3656 3659
3656 3660
3656 3661
3656 3662
3657 3658
3657 3659
3657 3660
3657 3661
3657 3662
3658 3659
3658 3660
3658 3661
3658 3662
3659 3660
3659 3661
3659 3662
3660 3661
3660 3662
3661 3662
3663 3664
3664 3665
3666 3667
3666 3672
3667 3672
3668 3669
3670 3671
3673 3674
3673 3675
3674 3675
3676 3677
3676 3678
3677 3678
3679 3680
3681 3682
3681 3683
3682 3683
3684 3685
3684 3686
3685 3686
3687 3688
3688 3689
